p cnf 5218 12848
-1 0
-20 0
-39 0
-58 0
-77 0
-96 0
-115 0
-134 0
-153 0
-172 0
-191 0
-210 0
-229 0
-248 0
-267 0
-286 0
-305 0
-324 0
-2 -19 0
-3 -37 0
-4 -55 0
-5 -73 0
-6 -91 0
-7 -109 0
-8 -127 0
-9 -145 0
-10 -163 0
-11 -181 0
-12 -199 0
-13 -217 0
-14 -235 0
-15 -253 0
-16 -271 0
-17 -289 0
-18 -307 0
-21 -38 0
-22 -56 0
-23 -74 0
-24 -92 0
-25 -110 0
-26 -128 0
-27 -146 0
-28 -164 0
-29 -182 0
-30 -200 0
-31 -218 0
-32 -236 0
-33 -254 0
-34 -272 0
-35 -290 0
-36 -308 0
-40 -57 0
-41 -75 0
-42 -93 0
-43 -111 0
-44 -129 0
-45 -147 0
-46 -165 0
-47 -183 0
-48 -201 0
-49 -219 0
-50 -237 0
-51 -255 0
-52 -273 0
-53 -291 0
-54 -309 0
-59 -76 0
-60 -94 0
-61 -112 0
-62 -130 0
-63 -148 0
-64 -166 0
-65 -184 0
-66 -202 0
-67 -220 0
-68 -238 0
-69 -256 0
-70 -274 0
-71 -292 0
-72 -310 0
-78 -95 0
-79 -113 0
-80 -131 0
-81 -149 0
-82 -167 0
-83 -185 0
-84 -203 0
-85 -221 0
-86 -239 0
-87 -257 0
-88 -275 0
-89 -293 0
-90 -311 0
-97 -114 0
-98 -132 0
-99 -150 0
-100 -168 0
-101 -186 0
-102 -204 0
-103 -222 0
-104 -240 0
-105 -258 0
-106 -276 0
-107 -294 0
-108 -312 0
-116 -133 0
-117 -151 0
-118 -169 0
-119 -187 0
-120 -205 0
-121 -223 0
-122 -241 0
-123 -259 0
-124 -277 0
-125 -295 0
-126 -313 0
-135 -152 0
-136 -170 0
-137 -188 0
-138 -206 0
-139 -224 0
-140 -242 0
-141 -260 0
-142 -278 0
-143 -296 0
-144 -314 0
-154 -171 0
-155 -189 0
-156 -207 0
-157 -225 0
-158 -243 0
-159 -261 0
-160 -279 0
-161 -297 0
-162 -315 0
-173 -190 0
-174 -208 0
-175 -226 0
-176 -244 0
-177 -262 0
-178 -280 0
-179 -298 0
-180 -316 0
-192 -209 0
-193 -227 0
-194 -245 0
-195 -263 0
-196 -281 0
-197 -299 0
-198 -317 0
-211 -228 0
-212 -246 0
-213 -264 0
-214 -282 0
-215 -300 0
-216 -318 0
-230 -247 0
-231 -265 0
-232 -283 0
-233 -301 0
-234 -319 0
-249 -266 0
-250 -284 0
-251 -302 0
-252 -320 0
-268 -285 0
-269 -303 0
-270 -321 0
-287 -304 0
-288 -322 0
-306 -323 0
-2 -21 -37 0
-3 -19 -38 0
-2 -22 -55 0
-4 -19 -56 0
-2 -23 -73 0
-5 -19 -74 0
-2 -24 -91 0
-6 -19 -92 0
-2 -25 -109 0
-7 -19 -110 0
-2 -26 -127 0
-8 -19 -128 0
-2 -27 -145 0
-9 -19 -146 0
-2 -28 -163 0
-10 -19 -164 0
-2 -29 -181 0
-11 -19 -182 0
-2 -30 -199 0
-12 -19 -200 0
-2 -31 -217 0
-13 -19 -218 0
-2 -32 -235 0
-14 -19 -236 0
-2 -33 -253 0
-15 -19 -254 0
-2 -34 -271 0
-16 -19 -272 0
-2 -35 -289 0
-17 -19 -290 0
-2 -36 -307 0
-18 -19 -308 0
-3 -40 -55 0
-4 -37 -57 0
-3 -41 -73 0
-5 -37 -75 0
-3 -42 -91 0
-6 -37 -93 0
-3 -43 -109 0
-7 -37 -111 0
-3 -44 -127 0
-8 -37 -129 0
-3 -45 -145 0
-9 -37 -147 0
-3 -46 -163 0
-10 -37 -165 0
-3 -47 -181 0
-11 -37 -183 0
-3 -48 -199 0
-12 -37 -201 0
-3 -49 -217 0
-13 -37 -219 0
-3 -50 -235 0
-14 -37 -237 0
-3 -51 -253 0
-15 -37 -255 0
-3 -52 -271 0
-16 -37 -273 0
-3 -53 -289 0
-17 -37 -291 0
-3 -54 -307 0
-18 -37 -309 0
-4 -59 -73 0
-5 -55 -76 0
-4 -60 -91 0
-6 -55 -94 0
-4 -61 -109 0
-7 -55 -112 0
-4 -62 -127 0
-8 -55 -130 0
-4 -63 -145 0
-9 -55 -148 0
-4 -64 -163 0
-10 -55 -166 0
-4 -65 -181 0
-11 -55 -184 0
-4 -66 -199 0
-12 -55 -202 0
-4 -67 -217 0
-13 -55 -220 0
-4 -68 -235 0
-14 -55 -238 0
-4 -69 -253 0
-15 -55 -256 0
-4 -70 -271 0
-16 -55 -274 0
-4 -71 -289 0
-17 -55 -292 0
-4 -72 -307 0
-18 -55 -310 0
-5 -78 -91 0
-6 -73 -95 0
-5 -79 -109 0
-7 -73 -113 0
-5 -80 -127 0
-8 -73 -131 0
-5 -81 -145 0
-9 -73 -149 0
-5 -82 -163 0
-10 -73 -167 0
-5 -83 -181 0
-11 -73 -185 0
-5 -84 -199 0
-12 -73 -203 0
-5 -85 -217 0
-13 -73 -221 0
-5 -86 -235 0
-14 -73 -239 0
-5 -87 -253 0
-15 -73 -257 0
-5 -88 -271 0
-16 -73 -275 0
-5 -89 -289 0
-17 -73 -293 0
-5 -90 -307 0
-18 -73 -311 0
-6 -97 -109 0
-7 -91 -114 0
-6 -98 -127 0
-8 -91 -132 0
-6 -99 -145 0
-9 -91 -150 0
-6 -100 -163 0
-10 -91 -168 0
-6 -101 -181 0
-11 -91 -186 0
-6 -102 -199 0
-12 -91 -204 0
-6 -103 -217 0
-13 -91 -222 0
-6 -104 -235 0
-14 -91 -240 0
-6 -105 -253 0
-15 -91 -258 0
-6 -106 -271 0
-16 -91 -276 0
-6 -107 -289 0
-17 -91 -294 0
-6 -108 -307 0
-18 -91 -312 0
-7 -116 -127 0
-8 -109 -133 0
-7 -117 -145 0
-9 -109 -151 0
-7 -118 -163 0
-10 -109 -169 0
-7 -119 -181 0
-11 -109 -187 0
-7 -120 -199 0
-12 -109 -205 0
-7 -121 -217 0
-13 -109 -223 0
-7 -122 -235 0
-14 -109 -241 0
-7 -123 -253 0
-15 -109 -259 0
-7 -124 -271 0
-16 -109 -277 0
-7 -125 -289 0
-17 -109 -295 0
-7 -126 -307 0
-18 -109 -313 0
-8 -135 -145 0
-9 -127 -152 0
-8 -136 -163 0
-10 -127 -170 0
-8 -137 -181 0
-11 -127 -188 0
-8 -138 -199 0
-12 -127 -206 0
-8 -139 -217 0
-13 -127 -224 0
-8 -140 -235 0
-14 -127 -242 0
-8 -141 -253 0
-15 -127 -260 0
-8 -142 -271 0
-16 -127 -278 0
-8 -143 -289 0
-17 -127 -296 0
-8 -144 -307 0
-18 -127 -314 0
-9 -154 -163 0
-10 -145 -171 0
-9 -155 -181 0
-11 -145 -189 0
-9 -156 -199 0
-12 -145 -207 0
-9 -157 -217 0
-13 -145 -225 0
-9 -158 -235 0
-14 -145 -243 0
-9 -159 -253 0
-15 -145 -261 0
-9 -160 -271 0
-16 -145 -279 0
-9 -161 -289 0
-17 -145 -297 0
-9 -162 -307 0
-18 -145 -315 0
-10 -173 -181 0
-11 -163 -190 0
-10 -174 -199 0
-12 -163 -208 0
-10 -175 -217 0
-13 -163 -226 0
-10 -176 -235 0
-14 -163 -244 0
-10 -177 -253 0
-15 -163 -262 0
-10 -178 -271 0
-16 -163 -280 0
-10 -179 -289 0
-17 -163 -298 0
-10 -180 -307 0
-18 -163 -316 0
-11 -192 -199 0
-12 -181 -209 0
-11 -193 -217 0
-13 -181 -227 0
-11 -194 -235 0
-14 -181 -245 0
-11 -195 -253 0
-15 -181 -263 0
-11 -196 -271 0
-16 -181 -281 0
-11 -197 -289 0
-17 -181 -299 0
-11 -198 -307 0
-18 -181 -317 0
-12 -211 -217 0
-13 -199 -228 0
-12 -212 -235 0
-14 -199 -246 0
-12 -213 -253 0
-15 -199 -264 0
-12 -214 -271 0
-16 -199 -282 0
-12 -215 -289 0
-17 -199 -300 0
-12 -216 -307 0
-18 -199 -318 0
-13 -230 -235 0
-14 -217 -247 0
-13 -231 -253 0
-15 -217 -265 0
-13 -232 -271 0
-16 -217 -283 0
-13 -233 -289 0
-17 -217 -301 0
-13 -234 -307 0
-18 -217 -319 0
-14 -249 -253 0
-15 -235 -266 0
-14 -250 -271 0
-16 -235 -284 0
-14 -251 -289 0
-17 -235 -302 0
-14 -252 -307 0
-18 -235 -320 0
-15 -268 -271 0
-16 -253 -285 0
-15 -269 -289 0
-17 -253 -303 0
-15 -270 -307 0
-18 -253 -321 0
-16 -287 -289 0
-17 -271 -304 0
-16 -288 -307 0
-18 -271 -322 0
-17 -306 -307 0
-18 -289 -323 0
-21 -40 -56 0
-22 -38 -57 0
-21 -41 -74 0
-23 -38 -75 0
-21 -42 -92 0
-24 -38 -93 0
-21 -43 -110 0
-25 -38 -111 0
-21 -44 -128 0
-26 -38 -129 0
-21 -45 -146 0
-27 -38 -147 0
-21 -46 -164 0
-28 -38 -165 0
-21 -47 -182 0
-29 -38 -183 0
-21 -48 -200 0
-30 -38 -201 0
-21 -49 -218 0
-31 -38 -219 0
-21 -50 -236 0
-32 -38 -237 0
-21 -51 -254 0
-33 -38 -255 0
-21 -52 -272 0
-34 -38 -273 0
-21 -53 -290 0
-35 -38 -291 0
-21 -54 -308 0
-36 -38 -309 0
-22 -59 -74 0
-23 -56 -76 0
-22 -60 -92 0
-24 -56 -94 0
-22 -61 -110 0
-25 -56 -112 0
-22 -62 -128 0
-26 -56 -130 0
-22 -63 -146 0
-27 -56 -148 0
-22 -64 -164 0
-28 -56 -166 0
-22 -65 -182 0
-29 -56 -184 0
-22 -66 -200 0
-30 -56 -202 0
-22 -67 -218 0
-31 -56 -220 0
-22 -68 -236 0
-32 -56 -238 0
-22 -69 -254 0
-33 -56 -256 0
-22 -70 -272 0
-34 -56 -274 0
-22 -71 -290 0
-35 -56 -292 0
-22 -72 -308 0
-36 -56 -310 0
-23 -78 -92 0
-24 -74 -95 0
-23 -79 -110 0
-25 -74 -113 0
-23 -80 -128 0
-26 -74 -131 0
-23 -81 -146 0
-27 -74 -149 0
-23 -82 -164 0
-28 -74 -167 0
-23 -83 -182 0
-29 -74 -185 0
-23 -84 -200 0
-30 -74 -203 0
-23 -85 -218 0
-31 -74 -221 0
-23 -86 -236 0
-32 -74 -239 0
-23 -87 -254 0
-33 -74 -257 0
-23 -88 -272 0
-34 -74 -275 0
-23 -89 -290 0
-35 -74 -293 0
-23 -90 -308 0
-36 -74 -311 0
-24 -97 -110 0
-25 -92 -114 0
-24 -98 -128 0
-26 -92 -132 0
-24 -99 -146 0
-27 -92 -150 0
-24 -100 -164 0
-28 -92 -168 0
-24 -101 -182 0
-29 -92 -186 0
-24 -102 -200 0
-30 -92 -204 0
-24 -103 -218 0
-31 -92 -222 0
-24 -104 -236 0
-32 -92 -240 0
-24 -105 -254 0
-33 -92 -258 0
-24 -106 -272 0
-34 -92 -276 0
-24 -107 -290 0
-35 -92 -294 0
-24 -108 -308 0
-36 -92 -312 0
-25 -116 -128 0
-26 -110 -133 0
-25 -117 -146 0
-27 -110 -151 0
-25 -118 -164 0
-28 -110 -169 0
-25 -119 -182 0
-29 -110 -187 0
-25 -120 -200 0
-30 -110 -205 0
-25 -121 -218 0
-31 -110 -223 0
-25 -122 -236 0
-32 -110 -241 0
-25 -123 -254 0
-33 -110 -259 0
-25 -124 -272 0
-34 -110 -277 0
-25 -125 -290 0
-35 -110 -295 0
-25 -126 -308 0
-36 -110 -313 0
-26 -135 -146 0
-27 -128 -152 0
-26 -136 -164 0
-28 -128 -170 0
-26 -137 -182 0
-29 -128 -188 0
-26 -138 -200 0
-30 -128 -206 0
-26 -139 -218 0
-31 -128 -224 0
-26 -140 -236 0
-32 -128 -242 0
-26 -141 -254 0
-33 -128 -260 0
-26 -142 -272 0
-34 -128 -278 0
-26 -143 -290 0
-35 -128 -296 0
-26 -144 -308 0
-36 -128 -314 0
-27 -154 -164 0
-28 -146 -171 0
-27 -155 -182 0
-29 -146 -189 0
-27 -156 -200 0
-30 -146 -207 0
-27 -157 -218 0
-31 -146 -225 0
-27 -158 -236 0
-32 -146 -243 0
-27 -159 -254 0
-33 -146 -261 0
-27 -160 -272 0
-34 -146 -279 0
-27 -161 -290 0
-35 -146 -297 0
-27 -162 -308 0
-36 -146 -315 0
-28 -173 -182 0
-29 -164 -190 0
-28 -174 -200 0
-30 -164 -208 0
-28 -175 -218 0
-31 -164 -226 0
-28 -176 -236 0
-32 -164 -244 0
-28 -177 -254 0
-33 -164 -262 0
-28 -178 -272 0
-34 -164 -280 0
-28 -179 -290 0
-35 -164 -298 0
-28 -180 -308 0
-36 -164 -316 0
-29 -192 -200 0
-30 -182 -209 0
-29 -193 -218 0
-31 -182 -227 0
-29 -194 -236 0
-32 -182 -245 0
-29 -195 -254 0
-33 -182 -263 0
-29 -196 -272 0
-34 -182 -281 0
-29 -197 -290 0
-35 -182 -299 0
-29 -198 -308 0
-36 -182 -317 0
-30 -211 -218 0
-31 -200 -228 0
-30 -212 -236 0
-32 -200 -246 0
-30 -213 -254 0
-33 -200 -264 0
-30 -214 -272 0
-34 -200 -282 0
-30 -215 -290 0
-35 -200 -300 0
-30 -216 -308 0
-36 -200 -318 0
-31 -230 -236 0
-32 -218 -247 0
-31 -231 -254 0
-33 -218 -265 0
-31 -232 -272 0
-34 -218 -283 0
-31 -233 -290 0
-35 -218 -301 0
-31 -234 -308 0
-36 -218 -319 0
-32 -249 -254 0
-33 -236 -266 0
-32 -250 -272 0
-34 -236 -284 0
-32 -251 -290 0
-35 -236 -302 0
-32 -252 -308 0
-36 -236 -320 0
-33 -268 -272 0
-34 -254 -285 0
-33 -269 -290 0
-35 -254 -303 0
-33 -270 -308 0
-36 -254 -321 0
-34 -287 -290 0
-35 -272 -304 0
-34 -288 -308 0
-36 -272 -322 0
-35 -306 -308 0
-36 -290 -323 0
-40 -59 -75 0
-41 -57 -76 0
-40 -60 -93 0
-42 -57 -94 0
-40 -61 -111 0
-43 -57 -112 0
-40 -62 -129 0
-44 -57 -130 0
-40 -63 -147 0
-45 -57 -148 0
-40 -64 -165 0
-46 -57 -166 0
-40 -65 -183 0
-47 -57 -184 0
-40 -66 -201 0
-48 -57 -202 0
-40 -67 -219 0
-49 -57 -220 0
-40 -68 -237 0
-50 -57 -238 0
-40 -69 -255 0
-51 -57 -256 0
-40 -70 -273 0
-52 -57 -274 0
-40 -71 -291 0
-53 -57 -292 0
-40 -72 -309 0
-54 -57 -310 0
-41 -78 -93 0
-42 -75 -95 0
-41 -79 -111 0
-43 -75 -113 0
-41 -80 -129 0
-44 -75 -131 0
-41 -81 -147 0
-45 -75 -149 0
-41 -82 -165 0
-46 -75 -167 0
-41 -83 -183 0
-47 -75 -185 0
-41 -84 -201 0
-48 -75 -203 0
-41 -85 -219 0
-49 -75 -221 0
-41 -86 -237 0
-50 -75 -239 0
-41 -87 -255 0
-51 -75 -257 0
-41 -88 -273 0
-52 -75 -275 0
-41 -89 -291 0
-53 -75 -293 0
-41 -90 -309 0
-54 -75 -311 0
-42 -97 -111 0
-43 -93 -114 0
-42 -98 -129 0
-44 -93 -132 0
-42 -99 -147 0
-45 -93 -150 0
-42 -100 -165 0
-46 -93 -168 0
-42 -101 -183 0
-47 -93 -186 0
-42 -102 -201 0
-48 -93 -204 0
-42 -103 -219 0
-49 -93 -222 0
-42 -104 -237 0
-50 -93 -240 0
-42 -105 -255 0
-51 -93 -258 0
-42 -106 -273 0
-52 -93 -276 0
-42 -107 -291 0
-53 -93 -294 0
-42 -108 -309 0
-54 -93 -312 0
-43 -116 -129 0
-44 -111 -133 0
-43 -117 -147 0
-45 -111 -151 0
-43 -118 -165 0
-46 -111 -169 0
-43 -119 -183 0
-47 -111 -187 0
-43 -120 -201 0
-48 -111 -205 0
-43 -121 -219 0
-49 -111 -223 0
-43 -122 -237 0
-50 -111 -241 0
-43 -123 -255 0
-51 -111 -259 0
-43 -124 -273 0
-52 -111 -277 0
-43 -125 -291 0
-53 -111 -295 0
-43 -126 -309 0
-54 -111 -313 0
-44 -135 -147 0
-45 -129 -152 0
-44 -136 -165 0
-46 -129 -170 0
-44 -137 -183 0
-47 -129 -188 0
-44 -138 -201 0
-48 -129 -206 0
-44 -139 -219 0
-49 -129 -224 0
-44 -140 -237 0
-50 -129 -242 0
-44 -141 -255 0
-51 -129 -260 0
-44 -142 -273 0
-52 -129 -278 0
-44 -143 -291 0
-53 -129 -296 0
-44 -144 -309 0
-54 -129 -314 0
-45 -154 -165 0
-46 -147 -171 0
-45 -155 -183 0
-47 -147 -189 0
-45 -156 -201 0
-48 -147 -207 0
-45 -157 -219 0
-49 -147 -225 0
-45 -158 -237 0
-50 -147 -243 0
-45 -159 -255 0
-51 -147 -261 0
-45 -160 -273 0
-52 -147 -279 0
-45 -161 -291 0
-53 -147 -297 0
-45 -162 -309 0
-54 -147 -315 0
-46 -173 -183 0
-47 -165 -190 0
-46 -174 -201 0
-48 -165 -208 0
-46 -175 -219 0
-49 -165 -226 0
-46 -176 -237 0
-50 -165 -244 0
-46 -177 -255 0
-51 -165 -262 0
-46 -178 -273 0
-52 -165 -280 0
-46 -179 -291 0
-53 -165 -298 0
-46 -180 -309 0
-54 -165 -316 0
-47 -192 -201 0
-48 -183 -209 0
-47 -193 -219 0
-49 -183 -227 0
-47 -194 -237 0
-50 -183 -245 0
-47 -195 -255 0
-51 -183 -263 0
-47 -196 -273 0
-52 -183 -281 0
-47 -197 -291 0
-53 -183 -299 0
-47 -198 -309 0
-54 -183 -317 0
-48 -211 -219 0
-49 -201 -228 0
-48 -212 -237 0
-50 -201 -246 0
-48 -213 -255 0
-51 -201 -264 0
-48 -214 -273 0
-52 -201 -282 0
-48 -215 -291 0
-53 -201 -300 0
-48 -216 -309 0
-54 -201 -318 0
-49 -230 -237 0
-50 -219 -247 0
-49 -231 -255 0
-51 -219 -265 0
-49 -232 -273 0
-52 -219 -283 0
-49 -233 -291 0
-53 -219 -301 0
-49 -234 -309 0
-54 -219 -319 0
-50 -249 -255 0
-51 -237 -266 0
-50 -250 -273 0
-52 -237 -284 0
-50 -251 -291 0
-53 -237 -302 0
-50 -252 -309 0
-54 -237 -320 0
-51 -268 -273 0
-52 -255 -285 0
-51 -269 -291 0
-53 -255 -303 0
-51 -270 -309 0
-54 -255 -321 0
-52 -287 -291 0
-53 -273 -304 0
-52 -288 -309 0
-54 -273 -322 0
-53 -306 -309 0
-54 -291 -323 0
-59 -78 -94 0
-60 -76 -95 0
-59 -79 -112 0
-61 -76 -113 0
-59 -80 -130 0
-62 -76 -131 0
-59 -81 -148 0
-63 -76 -149 0
-59 -82 -166 0
-64 -76 -167 0
-59 -83 -184 0
-65 -76 -185 0
-59 -84 -202 0
-66 -76 -203 0
-59 -85 -220 0
-67 -76 -221 0
-59 -86 -238 0
-68 -76 -239 0
-59 -87 -256 0
-69 -76 -257 0
-59 -88 -274 0
-70 -76 -275 0
-59 -89 -292 0
-71 -76 -293 0
-59 -90 -310 0
-72 -76 -311 0
-60 -97 -112 0
-61 -94 -114 0
-60 -98 -130 0
-62 -94 -132 0
-60 -99 -148 0
-63 -94 -150 0
-60 -100 -166 0
-64 -94 -168 0
-60 -101 -184 0
-65 -94 -186 0
-60 -102 -202 0
-66 -94 -204 0
-60 -103 -220 0
-67 -94 -222 0
-60 -104 -238 0
-68 -94 -240 0
-60 -105 -256 0
-69 -94 -258 0
-60 -106 -274 0
-70 -94 -276 0
-60 -107 -292 0
-71 -94 -294 0
-60 -108 -310 0
-72 -94 -312 0
-61 -116 -130 0
-62 -112 -133 0
-61 -117 -148 0
-63 -112 -151 0
-61 -118 -166 0
-64 -112 -169 0
-61 -119 -184 0
-65 -112 -187 0
-61 -120 -202 0
-66 -112 -205 0
-61 -121 -220 0
-67 -112 -223 0
-61 -122 -238 0
-68 -112 -241 0
-61 -123 -256 0
-69 -112 -259 0
-61 -124 -274 0
-70 -112 -277 0
-61 -125 -292 0
-71 -112 -295 0
-61 -126 -310 0
-72 -112 -313 0
-62 -135 -148 0
-63 -130 -152 0
-62 -136 -166 0
-64 -130 -170 0
-62 -137 -184 0
-65 -130 -188 0
-62 -138 -202 0
-66 -130 -206 0
-62 -139 -220 0
-67 -130 -224 0
-62 -140 -238 0
-68 -130 -242 0
-62 -141 -256 0
-69 -130 -260 0
-62 -142 -274 0
-70 -130 -278 0
-62 -143 -292 0
-71 -130 -296 0
-62 -144 -310 0
-72 -130 -314 0
-63 -154 -166 0
-64 -148 -171 0
-63 -155 -184 0
-65 -148 -189 0
-63 -156 -202 0
-66 -148 -207 0
-63 -157 -220 0
-67 -148 -225 0
-63 -158 -238 0
-68 -148 -243 0
-63 -159 -256 0
-69 -148 -261 0
-63 -160 -274 0
-70 -148 -279 0
-63 -161 -292 0
-71 -148 -297 0
-63 -162 -310 0
-72 -148 -315 0
-64 -173 -184 0
-65 -166 -190 0
-64 -174 -202 0
-66 -166 -208 0
-64 -175 -220 0
-67 -166 -226 0
-64 -176 -238 0
-68 -166 -244 0
-64 -177 -256 0
-69 -166 -262 0
-64 -178 -274 0
-70 -166 -280 0
-64 -179 -292 0
-71 -166 -298 0
-64 -180 -310 0
-72 -166 -316 0
-65 -192 -202 0
-66 -184 -209 0
-65 -193 -220 0
-67 -184 -227 0
-65 -194 -238 0
-68 -184 -245 0
-65 -195 -256 0
-69 -184 -263 0
-65 -196 -274 0
-70 -184 -281 0
-65 -197 -292 0
-71 -184 -299 0
-65 -198 -310 0
-72 -184 -317 0
-66 -211 -220 0
-67 -202 -228 0
-66 -212 -238 0
-68 -202 -246 0
-66 -213 -256 0
-69 -202 -264 0
-66 -214 -274 0
-70 -202 -282 0
-66 -215 -292 0
-71 -202 -300 0
-66 -216 -310 0
-72 -202 -318 0
-67 -230 -238 0
-68 -220 -247 0
-67 -231 -256 0
-69 -220 -265 0
-67 -232 -274 0
-70 -220 -283 0
-67 -233 -292 0
-71 -220 -301 0
-67 -234 -310 0
-72 -220 -319 0
-68 -249 -256 0
-69 -238 -266 0
-68 -250 -274 0
-70 -238 -284 0
-68 -251 -292 0
-71 -238 -302 0
-68 -252 -310 0
-72 -238 -320 0
-69 -268 -274 0
-70 -256 -285 0
-69 -269 -292 0
-71 -256 -303 0
-69 -270 -310 0
-72 -256 -321 0
-70 -287 -292 0
-71 -274 -304 0
-70 -288 -310 0
-72 -274 -322 0
-71 -306 -310 0
-72 -292 -323 0
-78 -97 -113 0
-79 -95 -114 0
-78 -98 -131 0
-80 -95 -132 0
-78 -99 -149 0
-81 -95 -150 0
-78 -100 -167 0
-82 -95 -168 0
-78 -101 -185 0
-83 -95 -186 0
-78 -102 -203 0
-84 -95 -204 0
-78 -103 -221 0
-85 -95 -222 0
-78 -104 -239 0
-86 -95 -240 0
-78 -105 -257 0
-87 -95 -258 0
-78 -106 -275 0
-88 -95 -276 0
-78 -107 -293 0
-89 -95 -294 0
-78 -108 -311 0
-90 -95 -312 0
-79 -116 -131 0
-80 -113 -133 0
-79 -117 -149 0
-81 -113 -151 0
-79 -118 -167 0
-82 -113 -169 0
-79 -119 -185 0
-83 -113 -187 0
-79 -120 -203 0
-84 -113 -205 0
-79 -121 -221 0
-85 -113 -223 0
-79 -122 -239 0
-86 -113 -241 0
-79 -123 -257 0
-87 -113 -259 0
-79 -124 -275 0
-88 -113 -277 0
-79 -125 -293 0
-89 -113 -295 0
-79 -126 -311 0
-90 -113 -313 0
-80 -135 -149 0
-81 -131 -152 0
-80 -136 -167 0
-82 -131 -170 0
-80 -137 -185 0
-83 -131 -188 0
-80 -138 -203 0
-84 -131 -206 0
-80 -139 -221 0
-85 -131 -224 0
-80 -140 -239 0
-86 -131 -242 0
-80 -141 -257 0
-87 -131 -260 0
-80 -142 -275 0
-88 -131 -278 0
-80 -143 -293 0
-89 -131 -296 0
-80 -144 -311 0
-90 -131 -314 0
-81 -154 -167 0
-82 -149 -171 0
-81 -155 -185 0
-83 -149 -189 0
-81 -156 -203 0
-84 -149 -207 0
-81 -157 -221 0
-85 -149 -225 0
-81 -158 -239 0
-86 -149 -243 0
-81 -159 -257 0
-87 -149 -261 0
-81 -160 -275 0
-88 -149 -279 0
-81 -161 -293 0
-89 -149 -297 0
-81 -162 -311 0
-90 -149 -315 0
-82 -173 -185 0
-83 -167 -190 0
-82 -174 -203 0
-84 -167 -208 0
-82 -175 -221 0
-85 -167 -226 0
-82 -176 -239 0
-86 -167 -244 0
-82 -177 -257 0
-87 -167 -262 0
-82 -178 -275 0
-88 -167 -280 0
-82 -179 -293 0
-89 -167 -298 0
-82 -180 -311 0
-90 -167 -316 0
-83 -192 -203 0
-84 -185 -209 0
-83 -193 -221 0
-85 -185 -227 0
-83 -194 -239 0
-86 -185 -245 0
-83 -195 -257 0
-87 -185 -263 0
-83 -196 -275 0
-88 -185 -281 0
-83 -197 -293 0
-89 -185 -299 0
-83 -198 -311 0
-90 -185 -317 0
-84 -211 -221 0
-85 -203 -228 0
-84 -212 -239 0
-86 -203 -246 0
-84 -213 -257 0
-87 -203 -264 0
-84 -214 -275 0
-88 -203 -282 0
-84 -215 -293 0
-89 -203 -300 0
-84 -216 -311 0
-90 -203 -318 0
-85 -230 -239 0
-86 -221 -247 0
-85 -231 -257 0
-87 -221 -265 0
-85 -232 -275 0
-88 -221 -283 0
-85 -233 -293 0
-89 -221 -301 0
-85 -234 -311 0
-90 -221 -319 0
-86 -249 -257 0
-87 -239 -266 0
-86 -250 -275 0
-88 -239 -284 0
-86 -251 -293 0
-89 -239 -302 0
-86 -252 -311 0
-90 -239 -320 0
-87 -268 -275 0
-88 -257 -285 0
-87 -269 -293 0
-89 -257 -303 0
-87 -270 -311 0
-90 -257 -321 0
-88 -287 -293 0
-89 -275 -304 0
-88 -288 -311 0
-90 -275 -322 0
-89 -306 -311 0
-90 -293 -323 0
-97 -116 -132 0
-98 -114 -133 0
-97 -117 -150 0
-99 -114 -151 0
-97 -118 -168 0
-100 -114 -169 0
-97 -119 -186 0
-101 -114 -187 0
-97 -120 -204 0
-102 -114 -205 0
-97 -121 -222 0
-103 -114 -223 0
-97 -122 -240 0
-104 -114 -241 0
-97 -123 -258 0
-105 -114 -259 0
-97 -124 -276 0
-106 -114 -277 0
-97 -125 -294 0
-107 -114 -295 0
-97 -126 -312 0
-108 -114 -313 0
-98 -135 -150 0
-99 -132 -152 0
-98 -136 -168 0
-100 -132 -170 0
-98 -137 -186 0
-101 -132 -188 0
-98 -138 -204 0
-102 -132 -206 0
-98 -139 -222 0
-103 -132 -224 0
-98 -140 -240 0
-104 -132 -242 0
-98 -141 -258 0
-105 -132 -260 0
-98 -142 -276 0
-106 -132 -278 0
-98 -143 -294 0
-107 -132 -296 0
-98 -144 -312 0
-108 -132 -314 0
-99 -154 -168 0
-100 -150 -171 0
-99 -155 -186 0
-101 -150 -189 0
-99 -156 -204 0
-102 -150 -207 0
-99 -157 -222 0
-103 -150 -225 0
-99 -158 -240 0
-104 -150 -243 0
-99 -159 -258 0
-105 -150 -261 0
-99 -160 -276 0
-106 -150 -279 0
-99 -161 -294 0
-107 -150 -297 0
-99 -162 -312 0
-108 -150 -315 0
-100 -173 -186 0
-101 -168 -190 0
-100 -174 -204 0
-102 -168 -208 0
-100 -175 -222 0
-103 -168 -226 0
-100 -176 -240 0
-104 -168 -244 0
-100 -177 -258 0
-105 -168 -262 0
-100 -178 -276 0
-106 -168 -280 0
-100 -179 -294 0
-107 -168 -298 0
-100 -180 -312 0
-108 -168 -316 0
-101 -192 -204 0
-102 -186 -209 0
-101 -193 -222 0
-103 -186 -227 0
-101 -194 -240 0
-104 -186 -245 0
-101 -195 -258 0
-105 -186 -263 0
-101 -196 -276 0
-106 -186 -281 0
-101 -197 -294 0
-107 -186 -299 0
-101 -198 -312 0
-108 -186 -317 0
-102 -211 -222 0
-103 -204 -228 0
-102 -212 -240 0
-104 -204 -246 0
-102 -213 -258 0
-105 -204 -264 0
-102 -214 -276 0
-106 -204 -282 0
-102 -215 -294 0
-107 -204 -300 0
-102 -216 -312 0
-108 -204 -318 0
-103 -230 -240 0
-104 -222 -247 0
-103 -231 -258 0
-105 -222 -265 0
-103 -232 -276 0
-106 -222 -283 0
-103 -233 -294 0
-107 -222 -301 0
-103 -234 -312 0
-108 -222 -319 0
-104 -249 -258 0
-105 -240 -266 0
-104 -250 -276 0
-106 -240 -284 0
-104 -251 -294 0
-107 -240 -302 0
-104 -252 -312 0
-108 -240 -320 0
-105 -268 -276 0
-106 -258 -285 0
-105 -269 -294 0
-107 -258 -303 0
-105 -270 -312 0
-108 -258 -321 0
-106 -287 -294 0
-107 -276 -304 0
-106 -288 -312 0
-108 -276 -322 0
-107 -306 -312 0
-108 -294 -323 0
-116 -135 -151 0
-117 -133 -152 0
-116 -136 -169 0
-118 -133 -170 0
-116 -137 -187 0
-119 -133 -188 0
-116 -138 -205 0
-120 -133 -206 0
-116 -139 -223 0
-121 -133 -224 0
-116 -140 -241 0
-122 -133 -242 0
-116 -141 -259 0
-123 -133 -260 0
-116 -142 -277 0
-124 -133 -278 0
-116 -143 -295 0
-125 -133 -296 0
-116 -144 -313 0
-126 -133 -314 0
-117 -154 -169 0
-118 -151 -171 0
-117 -155 -187 0
-119 -151 -189 0
-117 -156 -205 0
-120 -151 -207 0
-117 -157 -223 0
-121 -151 -225 0
-117 -158 -241 0
-122 -151 -243 0
-117 -159 -259 0
-123 -151 -261 0
-117 -160 -277 0
-124 -151 -279 0
-117 -161 -295 0
-125 -151 -297 0
-117 -162 -313 0
-126 -151 -315 0
-118 -173 -187 0
-119 -169 -190 0
-118 -174 -205 0
-120 -169 -208 0
-118 -175 -223 0
-121 -169 -226 0
-118 -176 -241 0
-122 -169 -244 0
-118 -177 -259 0
-123 -169 -262 0
-118 -178 -277 0
-124 -169 -280 0
-118 -179 -295 0
-125 -169 -298 0
-118 -180 -313 0
-126 -169 -316 0
-119 -192 -205 0
-120 -187 -209 0
-119 -193 -223 0
-121 -187 -227 0
-119 -194 -241 0
-122 -187 -245 0
-119 -195 -259 0
-123 -187 -263 0
-119 -196 -277 0
-124 -187 -281 0
-119 -197 -295 0
-125 -187 -299 0
-119 -198 -313 0
-126 -187 -317 0
-120 -211 -223 0
-121 -205 -228 0
-120 -212 -241 0
-122 -205 -246 0
-120 -213 -259 0
-123 -205 -264 0
-120 -214 -277 0
-124 -205 -282 0
-120 -215 -295 0
-125 -205 -300 0
-120 -216 -313 0
-126 -205 -318 0
-121 -230 -241 0
-122 -223 -247 0
-121 -231 -259 0
-123 -223 -265 0
-121 -232 -277 0
-124 -223 -283 0
-121 -233 -295 0
-125 -223 -301 0
-121 -234 -313 0
-126 -223 -319 0
-122 -249 -259 0
-123 -241 -266 0
-122 -250 -277 0
-124 -241 -284 0
-122 -251 -295 0
-125 -241 -302 0
-122 -252 -313 0
-126 -241 -320 0
-123 -268 -277 0
-124 -259 -285 0
-123 -269 -295 0
-125 -259 -303 0
-123 -270 -313 0
-126 -259 -321 0
-124 -287 -295 0
-125 -277 -304 0
-124 -288 -313 0
-126 -277 -322 0
-125 -306 -313 0
-126 -295 -323 0
-135 -154 -170 0
-136 -152 -171 0
-135 -155 -188 0
-137 -152 -189 0
-135 -156 -206 0
-138 -152 -207 0
-135 -157 -224 0
-139 -152 -225 0
-135 -158 -242 0
-140 -152 -243 0
-135 -159 -260 0
-141 -152 -261 0
-135 -160 -278 0
-142 -152 -279 0
-135 -161 -296 0
-143 -152 -297 0
-135 -162 -314 0
-144 -152 -315 0
-136 -173 -188 0
-137 -170 -190 0
-136 -174 -206 0
-138 -170 -208 0
-136 -175 -224 0
-139 -170 -226 0
-136 -176 -242 0
-140 -170 -244 0
-136 -177 -260 0
-141 -170 -262 0
-136 -178 -278 0
-142 -170 -280 0
-136 -179 -296 0
-143 -170 -298 0
-136 -180 -314 0
-144 -170 -316 0
-137 -192 -206 0
-138 -188 -209 0
-137 -193 -224 0
-139 -188 -227 0
-137 -194 -242 0
-140 -188 -245 0
-137 -195 -260 0
-141 -188 -263 0
-137 -196 -278 0
-142 -188 -281 0
-137 -197 -296 0
-143 -188 -299 0
-137 -198 -314 0
-144 -188 -317 0
-138 -211 -224 0
-139 -206 -228 0
-138 -212 -242 0
-140 -206 -246 0
-138 -213 -260 0
-141 -206 -264 0
-138 -214 -278 0
-142 -206 -282 0
-138 -215 -296 0
-143 -206 -300 0
-138 -216 -314 0
-144 -206 -318 0
-139 -230 -242 0
-140 -224 -247 0
-139 -231 -260 0
-141 -224 -265 0
-139 -232 -278 0
-142 -224 -283 0
-139 -233 -296 0
-143 -224 -301 0
-139 -234 -314 0
-144 -224 -319 0
-140 -249 -260 0
-141 -242 -266 0
-140 -250 -278 0
-142 -242 -284 0
-140 -251 -296 0
-143 -242 -302 0
-140 -252 -314 0
-144 -242 -320 0
-141 -268 -278 0
-142 -260 -285 0
-141 -269 -296 0
-143 -260 -303 0
-141 -270 -314 0
-144 -260 -321 0
-142 -287 -296 0
-143 -278 -304 0
-142 -288 -314 0
-144 -278 -322 0
-143 -306 -314 0
-144 -296 -323 0
-154 -173 -189 0
-155 -171 -190 0
-154 -174 -207 0
-156 -171 -208 0
-154 -175 -225 0
-157 -171 -226 0
-154 -176 -243 0
-158 -171 -244 0
-154 -177 -261 0
-159 -171 -262 0
-154 -178 -279 0
-160 -171 -280 0
-154 -179 -297 0
-161 -171 -298 0
-154 -180 -315 0
-162 -171 -316 0
-155 -192 -207 0
-156 -189 -209 0
-155 -193 -225 0
-157 -189 -227 0
-155 -194 -243 0
-158 -189 -245 0
-155 -195 -261 0
-159 -189 -263 0
-155 -196 -279 0
-160 -189 -281 0
-155 -197 -297 0
-161 -189 -299 0
-155 -198 -315 0
-162 -189 -317 0
-156 -211 -225 0
-157 -207 -228 0
-156 -212 -243 0
-158 -207 -246 0
-156 -213 -261 0
-159 -207 -264 0
-156 -214 -279 0
-160 -207 -282 0
-156 -215 -297 0
-161 -207 -300 0
-156 -216 -315 0
-162 -207 -318 0
-157 -230 -243 0
-158 -225 -247 0
-157 -231 -261 0
-159 -225 -265 0
-157 -232 -279 0
-160 -225 -283 0
-157 -233 -297 0
-161 -225 -301 0
-157 -234 -315 0
-162 -225 -319 0
-158 -249 -261 0
-159 -243 -266 0
-158 -250 -279 0
-160 -243 -284 0
-158 -251 -297 0
-161 -243 -302 0
-158 -252 -315 0
-162 -243 -320 0
-159 -268 -279 0
-160 -261 -285 0
-159 -269 -297 0
-161 -261 -303 0
-159 -270 -315 0
-162 -261 -321 0
-160 -287 -297 0
-161 -279 -304 0
-160 -288 -315 0
-162 -279 -322 0
-161 -306 -315 0
-162 -297 -323 0
-173 -192 -208 0
-174 -190 -209 0
-173 -193 -226 0
-175 -190 -227 0
-173 -194 -244 0
-176 -190 -245 0
-173 -195 -262 0
-177 -190 -263 0
-173 -196 -280 0
-178 -190 -281 0
-173 -197 -298 0
-179 -190 -299 0
-173 -198 -316 0
-180 -190 -317 0
-174 -211 -226 0
-175 -208 -228 0
-174 -212 -244 0
-176 -208 -246 0
-174 -213 -262 0
-177 -208 -264 0
-174 -214 -280 0
-178 -208 -282 0
-174 -215 -298 0
-179 -208 -300 0
-174 -216 -316 0
-180 -208 -318 0
-175 -230 -244 0
-176 -226 -247 0
-175 -231 -262 0
-177 -226 -265 0
-175 -232 -280 0
-178 -226 -283 0
-175 -233 -298 0
-179 -226 -301 0
-175 -234 -316 0
-180 -226 -319 0
-176 -249 -262 0
-177 -244 -266 0
-176 -250 -280 0
-178 -244 -284 0
-176 -251 -298 0
-179 -244 -302 0
-176 -252 -316 0
-180 -244 -320 0
-177 -268 -280 0
-178 -262 -285 0
-177 -269 -298 0
-179 -262 -303 0
-177 -270 -316 0
-180 -262 -321 0
-178 -287 -298 0
-179 -280 -304 0
-178 -288 -316 0
-180 -280 -322 0
-179 -306 -316 0
-180 -298 -323 0
-192 -211 -227 0
-193 -209 -228 0
-192 -212 -245 0
-194 -209 -246 0
-192 -213 -263 0
-195 -209 -264 0
-192 -214 -281 0
-196 -209 -282 0
-192 -215 -299 0
-197 -209 -300 0
-192 -216 -317 0
-198 -209 -318 0
-193 -230 -245 0
-194 -227 -247 0
-193 -231 -263 0
-195 -227 -265 0
-193 -232 -281 0
-196 -227 -283 0
-193 -233 -299 0
-197 -227 -301 0
-193 -234 -317 0
-198 -227 -319 0
-194 -249 -263 0
-195 -245 -266 0
-194 -250 -281 0
-196 -245 -284 0
-194 -251 -299 0
-197 -245 -302 0
-194 -252 -317 0
-198 -245 -320 0
-195 -268 -281 0
-196 -263 -285 0
-195 -269 -299 0
-197 -263 -303 0
-195 -270 -317 0
-198 -263 -321 0
-196 -287 -299 0
-197 -281 -304 0
-196 -288 -317 0
-198 -281 -322 0
-197 -306 -317 0
-198 -299 -323 0
-211 -230 -246 0
-212 -228 -247 0
-211 -231 -264 0
-213 -228 -265 0
-211 -232 -282 0
-214 -228 -283 0
-211 -233 -300 0
-215 -228 -301 0
-211 -234 -318 0
-216 -228 -319 0
-212 -249 -264 0
-213 -246 -266 0
-212 -250 -282 0
-214 -246 -284 0
-212 -251 -300 0
-215 -246 -302 0
-212 -252 -318 0
-216 -246 -320 0
-213 -268 -282 0
-214 -264 -285 0
-213 -269 -300 0
-215 -264 -303 0
-213 -270 -318 0
-216 -264 -321 0
-214 -287 -300 0
-215 -282 -304 0
-214 -288 -318 0
-216 -282 -322 0
-215 -306 -318 0
-216 -300 -323 0
-230 -249 -265 0
-231 -247 -266 0
-230 -250 -283 0
-232 -247 -284 0
-230 -251 -301 0
-233 -247 -302 0
-230 -252 -319 0
-234 -247 -320 0
-231 -268 -283 0
-232 -265 -285 0
-231 -269 -301 0
-233 -265 -303 0
-231 -270 -319 0
-234 -265 -321 0
-232 -287 -301 0
-233 -283 -304 0
-232 -288 -319 0
-234 -283 -322 0
-233 -306 -319 0
-234 -301 -323 0
-249 -268 -284 0
-250 -266 -285 0
-249 -269 -302 0
-251 -266 -303 0
-249 -270 -320 0
-252 -266 -321 0
-250 -287 -302 0
-251 -284 -304 0
-250 -288 -320 0
-252 -284 -322 0
-251 -306 -320 0
-252 -302 -323 0
-268 -287 -303 0
-269 -285 -304 0
-268 -288 -321 0
-270 -285 -322 0
-269 -306 -321 0
-270 -303 -323 0
-287 -306 -322 0
-288 -304 -323 0
2 0
-19 0
3 0
-37 0
4 0
-55 0
5 0
-73 0
6 0
-91 0
7 0
-109 0
-8 0
-9 0
-10 0
-11 0
-12 0
-13 0
-14 0
-15 0
-16 0
-17 0
-18 0
127 0
145 0
163 0
181 0
199 0
217 0
-235 0
-253 0
-271 0
-289 0
-307 0
-26 0
-27 0
-28 0
-29 0
-30 0
-31 0
-44 0
-45 0
-46 0
-47 0
-48 0
-49 0
-62 0
-63 0
-64 0
-65 0
-66 0
-67 0
-80 0
-81 0
-82 0
-83 0
-84 0
-85 0
-98 0
-99 0
-100 0
-101 0
-102 0
-103 0
-116 0
-117 0
-118 0
-119 0
-120 0
-121 0
19 325 0
-326 0
-327 0
-328 0
-329 0
-330 0
-331 0
-332 0
-333 0
-334 0
-335 0
21 336 0
-325 336 0
21 -325 337 0
-326 337 0
21 -326 338 0
-327 338 0
21 -327 339 0
-328 339 0
21 -328 340 0
-329 340 0
21 -329 341 0
-330 341 0
21 -330 342 0
-331 342 0
21 -331 343 0
-332 343 0
21 -332 344 0
-333 344 0
21 -333 345 0
-334 345 0
21 -334 346 0
-335 346 0
21 -335 0
22 347 0
-336 347 0
22 -336 348 0
-337 348 0
22 -337 349 0
-338 349 0
22 -338 350 0
-339 350 0
22 -339 351 0
-340 351 0
22 -340 352 0
-341 352 0
22 -341 353 0
-342 353 0
22 -342 354 0
-343 354 0
22 -343 355 0
-344 355 0
22 -344 356 0
-345 356 0
22 -345 357 0
-346 357 0
22 -346 0
23 358 0
-347 358 0
23 -347 359 0
-348 359 0
23 -348 360 0
-349 360 0
23 -349 361 0
-350 361 0
23 -350 362 0
-351 362 0
23 -351 363 0
-352 363 0
23 -352 364 0
-353 364 0
23 -353 365 0
-354 365 0
23 -354 366 0
-355 366 0
23 -355 367 0
-356 367 0
23 -356 368 0
-357 368 0
23 -357 0
24 369 0
-358 369 0
24 -358 370 0
-359 370 0
24 -359 371 0
-360 371 0
24 -360 372 0
-361 372 0
24 -361 373 0
-362 373 0
24 -362 374 0
-363 374 0
24 -363 375 0
-364 375 0
24 -364 376 0
-365 376 0
24 -365 377 0
-366 377 0
24 -366 378 0
-367 378 0
24 -367 379 0
-368 379 0
24 -368 0
25 380 0
-369 380 0
25 -369 381 0
-370 381 0
25 -370 382 0
-371 382 0
25 -371 383 0
-372 383 0
25 -372 384 0
-373 384 0
25 -373 385 0
-374 385 0
25 -374 386 0
-375 386 0
25 -375 387 0
-376 387 0
25 -376 388 0
-377 388 0
25 -377 389 0
-378 389 0
25 -378 390 0
-379 390 0
25 -379 0
26 391 0
-380 391 0
26 -380 392 0
-381 392 0
26 -381 393 0
-382 393 0
26 -382 394 0
-383 394 0
26 -383 395 0
-384 395 0
26 -384 396 0
-385 396 0
26 -385 397 0
-386 397 0
26 -386 398 0
-387 398 0
26 -387 399 0
-388 399 0
26 -388 400 0
-389 400 0
26 -389 401 0
-390 401 0
26 -390 0
27 402 0
-391 402 0
27 -391 403 0
-392 403 0
27 -392 404 0
-393 404 0
27 -393 405 0
-394 405 0
27 -394 406 0
-395 406 0
27 -395 407 0
-396 407 0
27 -396 408 0
-397 408 0
27 -397 409 0
-398 409 0
27 -398 410 0
-399 410 0
27 -399 411 0
-400 411 0
27 -400 412 0
-401 412 0
27 -401 0
28 413 0
-402 413 0
28 -402 414 0
-403 414 0
28 -403 415 0
-404 415 0
28 -404 416 0
-405 416 0
28 -405 417 0
-406 417 0
28 -406 418 0
-407 418 0
28 -407 419 0
-408 419 0
28 -408 420 0
-409 420 0
28 -409 421 0
-410 421 0
28 -410 422 0
-411 422 0
28 -411 423 0
-412 423 0
28 -412 0
29 424 0
-413 424 0
29 -413 425 0
-414 425 0
29 -414 426 0
-415 426 0
29 -415 427 0
-416 427 0
29 -416 428 0
-417 428 0
29 -417 429 0
-418 429 0
29 -418 430 0
-419 430 0
29 -419 431 0
-420 431 0
29 -420 432 0
-421 432 0
29 -421 433 0
-422 433 0
29 -422 434 0
-423 434 0
29 -423 0
30 435 0
-424 435 0
30 -424 436 0
-425 436 0
30 -425 437 0
-426 437 0
30 -426 438 0
-427 438 0
30 -427 439 0
-428 439 0
30 -428 440 0
-429 440 0
30 -429 441 0
-430 441 0
30 -430 442 0
-431 442 0
30 -431 443 0
-432 443 0
30 -432 444 0
-433 444 0
30 -433 445 0
-434 445 0
30 -434 0
31 446 0
-435 446 0
31 -435 447 0
-436 447 0
31 -436 448 0
-437 448 0
31 -437 449 0
-438 449 0
31 -438 450 0
-439 450 0
31 -439 451 0
-440 451 0
31 -440 452 0
-441 452 0
31 -441 453 0
-442 453 0
31 -442 454 0
-443 454 0
31 -443 455 0
-444 455 0
31 -444 456 0
-445 456 0
31 -445 0
32 457 0
-446 457 0
32 -446 458 0
-447 458 0
32 -447 459 0
-448 459 0
32 -448 460 0
-449 460 0
32 -449 461 0
-450 461 0
32 -450 462 0
-451 462 0
32 -451 463 0
-452 463 0
32 -452 464 0
-453 464 0
32 -453 465 0
-454 465 0
32 -454 466 0
-455 466 0
32 -455 467 0
-456 467 0
32 -456 0
33 468 0
-457 468 0
33 -457 469 0
-458 469 0
33 -458 470 0
-459 470 0
33 -459 471 0
-460 471 0
33 -460 472 0
-461 472 0
33 -461 473 0
-462 473 0
33 -462 474 0
-463 474 0
33 -463 475 0
-464 475 0
33 -464 476 0
-465 476 0
33 -465 477 0
-466 477 0
33 -466 478 0
-467 478 0
33 -467 0
34 479 0
-468 479 0
34 -468 480 0
-469 480 0
34 -469 481 0
-470 481 0
34 -470 482 0
-471 482 0
34 -471 483 0
-472 483 0
34 -472 484 0
-473 484 0
34 -473 485 0
-474 485 0
34 -474 486 0
-475 486 0
34 -475 487 0
-476 487 0
34 -476 488 0
-477 488 0
34 -477 489 0
-478 489 0
34 -478 0
35 490 0
-479 490 0
35 -479 491 0
-480 491 0
35 -480 492 0
-481 492 0
35 -481 493 0
-482 493 0
35 -482 494 0
-483 494 0
35 -483 495 0
-484 495 0
35 -484 496 0
-485 496 0
35 -485 497 0
-486 497 0
35 -486 498 0
-487 498 0
35 -487 499 0
-488 499 0
35 -488 500 0
-489 500 0
35 -489 0
36 -500 0
-19 501 0
-502 0
-503 0
-504 0
-505 0
-506 0
-21 507 0
-501 507 0
-21 -501 508 0
-502 508 0
-21 -502 509 0
-503 509 0
-21 -503 510 0
-504 510 0
-21 -504 511 0
-505 511 0
-21 -505 512 0
-506 512 0
-21 -506 0
-22 513 0
-507 513 0
-22 -507 514 0
-508 514 0
-22 -508 515 0
-509 515 0
-22 -509 516 0
-510 516 0
-22 -510 517 0
-511 517 0
-22 -511 518 0
-512 518 0
-22 -512 0
-23 519 0
-513 519 0
-23 -513 520 0
-514 520 0
-23 -514 521 0
-515 521 0
-23 -515 522 0
-516 522 0
-23 -516 523 0
-517 523 0
-23 -517 524 0
-518 524 0
-23 -518 0
-24 525 0
-519 525 0
-24 -519 526 0
-520 526 0
-24 -520 527 0
-521 527 0
-24 -521 528 0
-522 528 0
-24 -522 529 0
-523 529 0
-24 -523 530 0
-524 530 0
-24 -524 0
-25 531 0
-525 531 0
-25 -525 532 0
-526 532 0
-25 -526 533 0
-527 533 0
-25 -527 534 0
-528 534 0
-25 -528 535 0
-529 535 0
-25 -529 536 0
-530 536 0
-25 -530 0
-26 537 0
-531 537 0
-26 -531 538 0
-532 538 0
-26 -532 539 0
-533 539 0
-26 -533 540 0
-534 540 0
-26 -534 541 0
-535 541 0
-26 -535 542 0
-536 542 0
-26 -536 0
-27 543 0
-537 543 0
-27 -537 544 0
-538 544 0
-27 -538 545 0
-539 545 0
-27 -539 546 0
-540 546 0
-27 -540 547 0
-541 547 0
-27 -541 548 0
-542 548 0
-27 -542 0
-28 549 0
-543 549 0
-28 -543 550 0
-544 550 0
-28 -544 551 0
-545 551 0
-28 -545 552 0
-546 552 0
-28 -546 553 0
-547 553 0
-28 -547 554 0
-548 554 0
-28 -548 0
-29 555 0
-549 555 0
-29 -549 556 0
-550 556 0
-29 -550 557 0
-551 557 0
-29 -551 558 0
-552 558 0
-29 -552 559 0
-553 559 0
-29 -553 560 0
-554 560 0
-29 -554 0
-30 561 0
-555 561 0
-30 -555 562 0
-556 562 0
-30 -556 563 0
-557 563 0
-30 -557 564 0
-558 564 0
-30 -558 565 0
-559 565 0
-30 -559 566 0
-560 566 0
-30 -560 0
-31 567 0
-561 567 0
-31 -561 568 0
-562 568 0
-31 -562 569 0
-563 569 0
-31 -563 570 0
-564 570 0
-31 -564 571 0
-565 571 0
-31 -565 572 0
-566 572 0
-31 -566 0
-32 573 0
-567 573 0
-32 -567 574 0
-568 574 0
-32 -568 575 0
-569 575 0
-32 -569 576 0
-570 576 0
-32 -570 577 0
-571 577 0
-32 -571 578 0
-572 578 0
-32 -572 0
-33 579 0
-573 579 0
-33 -573 580 0
-574 580 0
-33 -574 581 0
-575 581 0
-33 -575 582 0
-576 582 0
-33 -576 583 0
-577 583 0
-33 -577 584 0
-578 584 0
-33 -578 0
-34 585 0
-579 585 0
-34 -579 586 0
-580 586 0
-34 -580 587 0
-581 587 0
-34 -581 588 0
-582 588 0
-34 -582 589 0
-583 589 0
-34 -583 590 0
-584 590 0
-34 -584 0
-35 591 0
-585 591 0
-35 -585 592 0
-586 592 0
-35 -586 593 0
-587 593 0
-35 -587 594 0
-588 594 0
-35 -588 595 0
-589 595 0
-35 -589 596 0
-590 596 0
-35 -590 0
-36 -596 0
37 597 0
-598 0
-599 0
-600 0
-601 0
-602 0
-603 0
-604 0
-605 0
-606 0
-607 0
38 608 0
-597 608 0
38 -597 609 0
-598 609 0
38 -598 610 0
-599 610 0
38 -599 611 0
-600 611 0
38 -600 612 0
-601 612 0
38 -601 613 0
-602 613 0
38 -602 614 0
-603 614 0
38 -603 615 0
-604 615 0
38 -604 616 0
-605 616 0
38 -605 617 0
-606 617 0
38 -606 618 0
-607 618 0
38 -607 0
40 619 0
-608 619 0
40 -608 620 0
-609 620 0
40 -609 621 0
-610 621 0
40 -610 622 0
-611 622 0
40 -611 623 0
-612 623 0
40 -612 624 0
-613 624 0
40 -613 625 0
-614 625 0
40 -614 626 0
-615 626 0
40 -615 627 0
-616 627 0
40 -616 628 0
-617 628 0
40 -617 629 0
-618 629 0
40 -618 0
41 630 0
-619 630 0
41 -619 631 0
-620 631 0
41 -620 632 0
-621 632 0
41 -621 633 0
-622 633 0
41 -622 634 0
-623 634 0
41 -623 635 0
-624 635 0
41 -624 636 0
-625 636 0
41 -625 637 0
-626 637 0
41 -626 638 0
-627 638 0
41 -627 639 0
-628 639 0
41 -628 640 0
-629 640 0
41 -629 0
42 641 0
-630 641 0
42 -630 642 0
-631 642 0
42 -631 643 0
-632 643 0
42 -632 644 0
-633 644 0
42 -633 645 0
-634 645 0
42 -634 646 0
-635 646 0
42 -635 647 0
-636 647 0
42 -636 648 0
-637 648 0
42 -637 649 0
-638 649 0
42 -638 650 0
-639 650 0
42 -639 651 0
-640 651 0
42 -640 0
43 652 0
-641 652 0
43 -641 653 0
-642 653 0
43 -642 654 0
-643 654 0
43 -643 655 0
-644 655 0
43 -644 656 0
-645 656 0
43 -645 657 0
-646 657 0
43 -646 658 0
-647 658 0
43 -647 659 0
-648 659 0
43 -648 660 0
-649 660 0
43 -649 661 0
-650 661 0
43 -650 662 0
-651 662 0
43 -651 0
44 663 0
-652 663 0
44 -652 664 0
-653 664 0
44 -653 665 0
-654 665 0
44 -654 666 0
-655 666 0
44 -655 667 0
-656 667 0
44 -656 668 0
-657 668 0
44 -657 669 0
-658 669 0
44 -658 670 0
-659 670 0
44 -659 671 0
-660 671 0
44 -660 672 0
-661 672 0
44 -661 673 0
-662 673 0
44 -662 0
45 674 0
-663 674 0
45 -663 675 0
-664 675 0
45 -664 676 0
-665 676 0
45 -665 677 0
-666 677 0
45 -666 678 0
-667 678 0
45 -667 679 0
-668 679 0
45 -668 680 0
-669 680 0
45 -669 681 0
-670 681 0
45 -670 682 0
-671 682 0
45 -671 683 0
-672 683 0
45 -672 684 0
-673 684 0
45 -673 0
46 685 0
-674 685 0
46 -674 686 0
-675 686 0
46 -675 687 0
-676 687 0
46 -676 688 0
-677 688 0
46 -677 689 0
-678 689 0
46 -678 690 0
-679 690 0
46 -679 691 0
-680 691 0
46 -680 692 0
-681 692 0
46 -681 693 0
-682 693 0
46 -682 694 0
-683 694 0
46 -683 695 0
-684 695 0
46 -684 0
47 696 0
-685 696 0
47 -685 697 0
-686 697 0
47 -686 698 0
-687 698 0
47 -687 699 0
-688 699 0
47 -688 700 0
-689 700 0
47 -689 701 0
-690 701 0
47 -690 702 0
-691 702 0
47 -691 703 0
-692 703 0
47 -692 704 0
-693 704 0
47 -693 705 0
-694 705 0
47 -694 706 0
-695 706 0
47 -695 0
48 707 0
-696 707 0
48 -696 708 0
-697 708 0
48 -697 709 0
-698 709 0
48 -698 710 0
-699 710 0
48 -699 711 0
-700 711 0
48 -700 712 0
-701 712 0
48 -701 713 0
-702 713 0
48 -702 714 0
-703 714 0
48 -703 715 0
-704 715 0
48 -704 716 0
-705 716 0
48 -705 717 0
-706 717 0
48 -706 0
49 718 0
-707 718 0
49 -707 719 0
-708 719 0
49 -708 720 0
-709 720 0
49 -709 721 0
-710 721 0
49 -710 722 0
-711 722 0
49 -711 723 0
-712 723 0
49 -712 724 0
-713 724 0
49 -713 725 0
-714 725 0
49 -714 726 0
-715 726 0
49 -715 727 0
-716 727 0
49 -716 728 0
-717 728 0
49 -717 0
50 729 0
-718 729 0
50 -718 730 0
-719 730 0
50 -719 731 0
-720 731 0
50 -720 732 0
-721 732 0
50 -721 733 0
-722 733 0
50 -722 734 0
-723 734 0
50 -723 735 0
-724 735 0
50 -724 736 0
-725 736 0
50 -725 737 0
-726 737 0
50 -726 738 0
-727 738 0
50 -727 739 0
-728 739 0
50 -728 0
51 740 0
-729 740 0
51 -729 741 0
-730 741 0
51 -730 742 0
-731 742 0
51 -731 743 0
-732 743 0
51 -732 744 0
-733 744 0
51 -733 745 0
-734 745 0
51 -734 746 0
-735 746 0
51 -735 747 0
-736 747 0
51 -736 748 0
-737 748 0
51 -737 749 0
-738 749 0
51 -738 750 0
-739 750 0
51 -739 0
52 751 0
-740 751 0
52 -740 752 0
-741 752 0
52 -741 753 0
-742 753 0
52 -742 754 0
-743 754 0
52 -743 755 0
-744 755 0
52 -744 756 0
-745 756 0
52 -745 757 0
-746 757 0
52 -746 758 0
-747 758 0
52 -747 759 0
-748 759 0
52 -748 760 0
-749 760 0
52 -749 761 0
-750 761 0
52 -750 0
53 762 0
-751 762 0
53 -751 763 0
-752 763 0
53 -752 764 0
-753 764 0
53 -753 765 0
-754 765 0
53 -754 766 0
-755 766 0
53 -755 767 0
-756 767 0
53 -756 768 0
-757 768 0
53 -757 769 0
-758 769 0
53 -758 770 0
-759 770 0
53 -759 771 0
-760 771 0
53 -760 772 0
-761 772 0
53 -761 0
54 -772 0
-37 773 0
-774 0
-775 0
-776 0
-777 0
-778 0
-38 779 0
-773 779 0
-38 -773 780 0
-774 780 0
-38 -774 781 0
-775 781 0
-38 -775 782 0
-776 782 0
-38 -776 783 0
-777 783 0
-38 -777 784 0
-778 784 0
-38 -778 0
-40 785 0
-779 785 0
-40 -779 786 0
-780 786 0
-40 -780 787 0
-781 787 0
-40 -781 788 0
-782 788 0
-40 -782 789 0
-783 789 0
-40 -783 790 0
-784 790 0
-40 -784 0
-41 791 0
-785 791 0
-41 -785 792 0
-786 792 0
-41 -786 793 0
-787 793 0
-41 -787 794 0
-788 794 0
-41 -788 795 0
-789 795 0
-41 -789 796 0
-790 796 0
-41 -790 0
-42 797 0
-791 797 0
-42 -791 798 0
-792 798 0
-42 -792 799 0
-793 799 0
-42 -793 800 0
-794 800 0
-42 -794 801 0
-795 801 0
-42 -795 802 0
-796 802 0
-42 -796 0
-43 803 0
-797 803 0
-43 -797 804 0
-798 804 0
-43 -798 805 0
-799 805 0
-43 -799 806 0
-800 806 0
-43 -800 807 0
-801 807 0
-43 -801 808 0
-802 808 0
-43 -802 0
-44 809 0
-803 809 0
-44 -803 810 0
-804 810 0
-44 -804 811 0
-805 811 0
-44 -805 812 0
-806 812 0
-44 -806 813 0
-807 813 0
-44 -807 814 0
-808 814 0
-44 -808 0
-45 815 0
-809 815 0
-45 -809 816 0
-810 816 0
-45 -810 817 0
-811 817 0
-45 -811 818 0
-812 818 0
-45 -812 819 0
-813 819 0
-45 -813 820 0
-814 820 0
-45 -814 0
-46 821 0
-815 821 0
-46 -815 822 0
-816 822 0
-46 -816 823 0
-817 823 0
-46 -817 824 0
-818 824 0
-46 -818 825 0
-819 825 0
-46 -819 826 0
-820 826 0
-46 -820 0
-47 827 0
-821 827 0
-47 -821 828 0
-822 828 0
-47 -822 829 0
-823 829 0
-47 -823 830 0
-824 830 0
-47 -824 831 0
-825 831 0
-47 -825 832 0
-826 832 0
-47 -826 0
-48 833 0
-827 833 0
-48 -827 834 0
-828 834 0
-48 -828 835 0
-829 835 0
-48 -829 836 0
-830 836 0
-48 -830 837 0
-831 837 0
-48 -831 838 0
-832 838 0
-48 -832 0
-49 839 0
-833 839 0
-49 -833 840 0
-834 840 0
-49 -834 841 0
-835 841 0
-49 -835 842 0
-836 842 0
-49 -836 843 0
-837 843 0
-49 -837 844 0
-838 844 0
-49 -838 0
-50 845 0
-839 845 0
-50 -839 846 0
-840 846 0
-50 -840 847 0
-841 847 0
-50 -841 848 0
-842 848 0
-50 -842 849 0
-843 849 0
-50 -843 850 0
-844 850 0
-50 -844 0
-51 851 0
-845 851 0
-51 -845 852 0
-846 852 0
-51 -846 853 0
-847 853 0
-51 -847 854 0
-848 854 0
-51 -848 855 0
-849 855 0
-51 -849 856 0
-850 856 0
-51 -850 0
-52 857 0
-851 857 0
-52 -851 858 0
-852 858 0
-52 -852 859 0
-853 859 0
-52 -853 860 0
-854 860 0
-52 -854 861 0
-855 861 0
-52 -855 862 0
-856 862 0
-52 -856 0
-53 863 0
-857 863 0
-53 -857 864 0
-858 864 0
-53 -858 865 0
-859 865 0
-53 -859 866 0
-860 866 0
-53 -860 867 0
-861 867 0
-53 -861 868 0
-862 868 0
-53 -862 0
-54 -868 0
55 869 0
-870 0
-871 0
-872 0
-873 0
-874 0
-875 0
-876 0
-877 0
-878 0
-879 0
56 880 0
-869 880 0
56 -869 881 0
-870 881 0
56 -870 882 0
-871 882 0
56 -871 883 0
-872 883 0
56 -872 884 0
-873 884 0
56 -873 885 0
-874 885 0
56 -874 886 0
-875 886 0
56 -875 887 0
-876 887 0
56 -876 888 0
-877 888 0
56 -877 889 0
-878 889 0
56 -878 890 0
-879 890 0
56 -879 0
57 891 0
-880 891 0
57 -880 892 0
-881 892 0
57 -881 893 0
-882 893 0
57 -882 894 0
-883 894 0
57 -883 895 0
-884 895 0
57 -884 896 0
-885 896 0
57 -885 897 0
-886 897 0
57 -886 898 0
-887 898 0
57 -887 899 0
-888 899 0
57 -888 900 0
-889 900 0
57 -889 901 0
-890 901 0
57 -890 0
59 902 0
-891 902 0
59 -891 903 0
-892 903 0
59 -892 904 0
-893 904 0
59 -893 905 0
-894 905 0
59 -894 906 0
-895 906 0
59 -895 907 0
-896 907 0
59 -896 908 0
-897 908 0
59 -897 909 0
-898 909 0
59 -898 910 0
-899 910 0
59 -899 911 0
-900 911 0
59 -900 912 0
-901 912 0
59 -901 0
60 913 0
-902 913 0
60 -902 914 0
-903 914 0
60 -903 915 0
-904 915 0
60 -904 916 0
-905 916 0
60 -905 917 0
-906 917 0
60 -906 918 0
-907 918 0
60 -907 919 0
-908 919 0
60 -908 920 0
-909 920 0
60 -909 921 0
-910 921 0
60 -910 922 0
-911 922 0
60 -911 923 0
-912 923 0
60 -912 0
61 924 0
-913 924 0
61 -913 925 0
-914 925 0
61 -914 926 0
-915 926 0
61 -915 927 0
-916 927 0
61 -916 928 0
-917 928 0
61 -917 929 0
-918 929 0
61 -918 930 0
-919 930 0
61 -919 931 0
-920 931 0
61 -920 932 0
-921 932 0
61 -921 933 0
-922 933 0
61 -922 934 0
-923 934 0
61 -923 0
62 935 0
-924 935 0
62 -924 936 0
-925 936 0
62 -925 937 0
-926 937 0
62 -926 938 0
-927 938 0
62 -927 939 0
-928 939 0
62 -928 940 0
-929 940 0
62 -929 941 0
-930 941 0
62 -930 942 0
-931 942 0
62 -931 943 0
-932 943 0
62 -932 944 0
-933 944 0
62 -933 945 0
-934 945 0
62 -934 0
63 946 0
-935 946 0
63 -935 947 0
-936 947 0
63 -936 948 0
-937 948 0
63 -937 949 0
-938 949 0
63 -938 950 0
-939 950 0
63 -939 951 0
-940 951 0
63 -940 952 0
-941 952 0
63 -941 953 0
-942 953 0
63 -942 954 0
-943 954 0
63 -943 955 0
-944 955 0
63 -944 956 0
-945 956 0
63 -945 0
64 957 0
-946 957 0
64 -946 958 0
-947 958 0
64 -947 959 0
-948 959 0
64 -948 960 0
-949 960 0
64 -949 961 0
-950 961 0
64 -950 962 0
-951 962 0
64 -951 963 0
-952 963 0
64 -952 964 0
-953 964 0
64 -953 965 0
-954 965 0
64 -954 966 0
-955 966 0
64 -955 967 0
-956 967 0
64 -956 0
65 968 0
-957 968 0
65 -957 969 0
-958 969 0
65 -958 970 0
-959 970 0
65 -959 971 0
-960 971 0
65 -960 972 0
-961 972 0
65 -961 973 0
-962 973 0
65 -962 974 0
-963 974 0
65 -963 975 0
-964 975 0
65 -964 976 0
-965 976 0
65 -965 977 0
-966 977 0
65 -966 978 0
-967 978 0
65 -967 0
66 979 0
-968 979 0
66 -968 980 0
-969 980 0
66 -969 981 0
-970 981 0
66 -970 982 0
-971 982 0
66 -971 983 0
-972 983 0
66 -972 984 0
-973 984 0
66 -973 985 0
-974 985 0
66 -974 986 0
-975 986 0
66 -975 987 0
-976 987 0
66 -976 988 0
-977 988 0
66 -977 989 0
-978 989 0
66 -978 0
67 990 0
-979 990 0
67 -979 991 0
-980 991 0
67 -980 992 0
-981 992 0
67 -981 993 0
-982 993 0
67 -982 994 0
-983 994 0
67 -983 995 0
-984 995 0
67 -984 996 0
-985 996 0
67 -985 997 0
-986 997 0
67 -986 998 0
-987 998 0
67 -987 999 0
-988 999 0
67 -988 1000 0
-989 1000 0
67 -989 0
68 1001 0
-990 1001 0
68 -990 1002 0
-991 1002 0
68 -991 1003 0
-992 1003 0
68 -992 1004 0
-993 1004 0
68 -993 1005 0
-994 1005 0
68 -994 1006 0
-995 1006 0
68 -995 1007 0
-996 1007 0
68 -996 1008 0
-997 1008 0
68 -997 1009 0
-998 1009 0
68 -998 1010 0
-999 1010 0
68 -999 1011 0
-1000 1011 0
68 -1000 0
69 1012 0
-1001 1012 0
69 -1001 1013 0
-1002 1013 0
69 -1002 1014 0
-1003 1014 0
69 -1003 1015 0
-1004 1015 0
69 -1004 1016 0
-1005 1016 0
69 -1005 1017 0
-1006 1017 0
69 -1006 1018 0
-1007 1018 0
69 -1007 1019 0
-1008 1019 0
69 -1008 1020 0
-1009 1020 0
69 -1009 1021 0
-1010 1021 0
69 -1010 1022 0
-1011 1022 0
69 -1011 0
70 1023 0
-1012 1023 0
70 -1012 1024 0
-1013 1024 0
70 -1013 1025 0
-1014 1025 0
70 -1014 1026 0
-1015 1026 0
70 -1015 1027 0
-1016 1027 0
70 -1016 1028 0
-1017 1028 0
70 -1017 1029 0
-1018 1029 0
70 -1018 1030 0
-1019 1030 0
70 -1019 1031 0
-1020 1031 0
70 -1020 1032 0
-1021 1032 0
70 -1021 1033 0
-1022 1033 0
70 -1022 0
71 1034 0
-1023 1034 0
71 -1023 1035 0
-1024 1035 0
71 -1024 1036 0
-1025 1036 0
71 -1025 1037 0
-1026 1037 0
71 -1026 1038 0
-1027 1038 0
71 -1027 1039 0
-1028 1039 0
71 -1028 1040 0
-1029 1040 0
71 -1029 1041 0
-1030 1041 0
71 -1030 1042 0
-1031 1042 0
71 -1031 1043 0
-1032 1043 0
71 -1032 1044 0
-1033 1044 0
71 -1033 0
72 -1044 0
-55 1045 0
-1046 0
-1047 0
-1048 0
-1049 0
-1050 0
-56 1051 0
-1045 1051 0
-56 -1045 1052 0
-1046 1052 0
-56 -1046 1053 0
-1047 1053 0
-56 -1047 1054 0
-1048 1054 0
-56 -1048 1055 0
-1049 1055 0
-56 -1049 1056 0
-1050 1056 0
-56 -1050 0
-57 1057 0
-1051 1057 0
-57 -1051 1058 0
-1052 1058 0
-57 -1052 1059 0
-1053 1059 0
-57 -1053 1060 0
-1054 1060 0
-57 -1054 1061 0
-1055 1061 0
-57 -1055 1062 0
-1056 1062 0
-57 -1056 0
-59 1063 0
-1057 1063 0
-59 -1057 1064 0
-1058 1064 0
-59 -1058 1065 0
-1059 1065 0
-59 -1059 1066 0
-1060 1066 0
-59 -1060 1067 0
-1061 1067 0
-59 -1061 1068 0
-1062 1068 0
-59 -1062 0
-60 1069 0
-1063 1069 0
-60 -1063 1070 0
-1064 1070 0
-60 -1064 1071 0
-1065 1071 0
-60 -1065 1072 0
-1066 1072 0
-60 -1066 1073 0
-1067 1073 0
-60 -1067 1074 0
-1068 1074 0
-60 -1068 0
-61 1075 0
-1069 1075 0
-61 -1069 1076 0
-1070 1076 0
-61 -1070 1077 0
-1071 1077 0
-61 -1071 1078 0
-1072 1078 0
-61 -1072 1079 0
-1073 1079 0
-61 -1073 1080 0
-1074 1080 0
-61 -1074 0
-62 1081 0
-1075 1081 0
-62 -1075 1082 0
-1076 1082 0
-62 -1076 1083 0
-1077 1083 0
-62 -1077 1084 0
-1078 1084 0
-62 -1078 1085 0
-1079 1085 0
-62 -1079 1086 0
-1080 1086 0
-62 -1080 0
-63 1087 0
-1081 1087 0
-63 -1081 1088 0
-1082 1088 0
-63 -1082 1089 0
-1083 1089 0
-63 -1083 1090 0
-1084 1090 0
-63 -1084 1091 0
-1085 1091 0
-63 -1085 1092 0
-1086 1092 0
-63 -1086 0
-64 1093 0
-1087 1093 0
-64 -1087 1094 0
-1088 1094 0
-64 -1088 1095 0
-1089 1095 0
-64 -1089 1096 0
-1090 1096 0
-64 -1090 1097 0
-1091 1097 0
-64 -1091 1098 0
-1092 1098 0
-64 -1092 0
-65 1099 0
-1093 1099 0
-65 -1093 1100 0
-1094 1100 0
-65 -1094 1101 0
-1095 1101 0
-65 -1095 1102 0
-1096 1102 0
-65 -1096 1103 0
-1097 1103 0
-65 -1097 1104 0
-1098 1104 0
-65 -1098 0
-66 1105 0
-1099 1105 0
-66 -1099 1106 0
-1100 1106 0
-66 -1100 1107 0
-1101 1107 0
-66 -1101 1108 0
-1102 1108 0
-66 -1102 1109 0
-1103 1109 0
-66 -1103 1110 0
-1104 1110 0
-66 -1104 0
-67 1111 0
-1105 1111 0
-67 -1105 1112 0
-1106 1112 0
-67 -1106 1113 0
-1107 1113 0
-67 -1107 1114 0
-1108 1114 0
-67 -1108 1115 0
-1109 1115 0
-67 -1109 1116 0
-1110 1116 0
-67 -1110 0
-68 1117 0
-1111 1117 0
-68 -1111 1118 0
-1112 1118 0
-68 -1112 1119 0
-1113 1119 0
-68 -1113 1120 0
-1114 1120 0
-68 -1114 1121 0
-1115 1121 0
-68 -1115 1122 0
-1116 1122 0
-68 -1116 0
-69 1123 0
-1117 1123 0
-69 -1117 1124 0
-1118 1124 0
-69 -1118 1125 0
-1119 1125 0
-69 -1119 1126 0
-1120 1126 0
-69 -1120 1127 0
-1121 1127 0
-69 -1121 1128 0
-1122 1128 0
-69 -1122 0
-70 1129 0
-1123 1129 0
-70 -1123 1130 0
-1124 1130 0
-70 -1124 1131 0
-1125 1131 0
-70 -1125 1132 0
-1126 1132 0
-70 -1126 1133 0
-1127 1133 0
-70 -1127 1134 0
-1128 1134 0
-70 -1128 0
-71 1135 0
-1129 1135 0
-71 -1129 1136 0
-1130 1136 0
-71 -1130 1137 0
-1131 1137 0
-71 -1131 1138 0
-1132 1138 0
-71 -1132 1139 0
-1133 1139 0
-71 -1133 1140 0
-1134 1140 0
-71 -1134 0
-72 -1140 0
73 1141 0
-1142 0
-1143 0
-1144 0
-1145 0
-1146 0
-1147 0
-1148 0
-1149 0
-1150 0
-1151 0
74 1152 0
-1141 1152 0
74 -1141 1153 0
-1142 1153 0
74 -1142 1154 0
-1143 1154 0
74 -1143 1155 0
-1144 1155 0
74 -1144 1156 0
-1145 1156 0
74 -1145 1157 0
-1146 1157 0
74 -1146 1158 0
-1147 1158 0
74 -1147 1159 0
-1148 1159 0
74 -1148 1160 0
-1149 1160 0
74 -1149 1161 0
-1150 1161 0
74 -1150 1162 0
-1151 1162 0
74 -1151 0
75 1163 0
-1152 1163 0
75 -1152 1164 0
-1153 1164 0
75 -1153 1165 0
-1154 1165 0
75 -1154 1166 0
-1155 1166 0
75 -1155 1167 0
-1156 1167 0
75 -1156 1168 0
-1157 1168 0
75 -1157 1169 0
-1158 1169 0
75 -1158 1170 0
-1159 1170 0
75 -1159 1171 0
-1160 1171 0
75 -1160 1172 0
-1161 1172 0
75 -1161 1173 0
-1162 1173 0
75 -1162 0
76 1174 0
-1163 1174 0
76 -1163 1175 0
-1164 1175 0
76 -1164 1176 0
-1165 1176 0
76 -1165 1177 0
-1166 1177 0
76 -1166 1178 0
-1167 1178 0
76 -1167 1179 0
-1168 1179 0
76 -1168 1180 0
-1169 1180 0
76 -1169 1181 0
-1170 1181 0
76 -1170 1182 0
-1171 1182 0
76 -1171 1183 0
-1172 1183 0
76 -1172 1184 0
-1173 1184 0
76 -1173 0
78 1185 0
-1174 1185 0
78 -1174 1186 0
-1175 1186 0
78 -1175 1187 0
-1176 1187 0
78 -1176 1188 0
-1177 1188 0
78 -1177 1189 0
-1178 1189 0
78 -1178 1190 0
-1179 1190 0
78 -1179 1191 0
-1180 1191 0
78 -1180 1192 0
-1181 1192 0
78 -1181 1193 0
-1182 1193 0
78 -1182 1194 0
-1183 1194 0
78 -1183 1195 0
-1184 1195 0
78 -1184 0
79 1196 0
-1185 1196 0
79 -1185 1197 0
-1186 1197 0
79 -1186 1198 0
-1187 1198 0
79 -1187 1199 0
-1188 1199 0
79 -1188 1200 0
-1189 1200 0
79 -1189 1201 0
-1190 1201 0
79 -1190 1202 0
-1191 1202 0
79 -1191 1203 0
-1192 1203 0
79 -1192 1204 0
-1193 1204 0
79 -1193 1205 0
-1194 1205 0
79 -1194 1206 0
-1195 1206 0
79 -1195 0
80 1207 0
-1196 1207 0
80 -1196 1208 0
-1197 1208 0
80 -1197 1209 0
-1198 1209 0
80 -1198 1210 0
-1199 1210 0
80 -1199 1211 0
-1200 1211 0
80 -1200 1212 0
-1201 1212 0
80 -1201 1213 0
-1202 1213 0
80 -1202 1214 0
-1203 1214 0
80 -1203 1215 0
-1204 1215 0
80 -1204 1216 0
-1205 1216 0
80 -1205 1217 0
-1206 1217 0
80 -1206 0
81 1218 0
-1207 1218 0
81 -1207 1219 0
-1208 1219 0
81 -1208 1220 0
-1209 1220 0
81 -1209 1221 0
-1210 1221 0
81 -1210 1222 0
-1211 1222 0
81 -1211 1223 0
-1212 1223 0
81 -1212 1224 0
-1213 1224 0
81 -1213 1225 0
-1214 1225 0
81 -1214 1226 0
-1215 1226 0
81 -1215 1227 0
-1216 1227 0
81 -1216 1228 0
-1217 1228 0
81 -1217 0
82 1229 0
-1218 1229 0
82 -1218 1230 0
-1219 1230 0
82 -1219 1231 0
-1220 1231 0
82 -1220 1232 0
-1221 1232 0
82 -1221 1233 0
-1222 1233 0
82 -1222 1234 0
-1223 1234 0
82 -1223 1235 0
-1224 1235 0
82 -1224 1236 0
-1225 1236 0
82 -1225 1237 0
-1226 1237 0
82 -1226 1238 0
-1227 1238 0
82 -1227 1239 0
-1228 1239 0
82 -1228 0
83 1240 0
-1229 1240 0
83 -1229 1241 0
-1230 1241 0
83 -1230 1242 0
-1231 1242 0
83 -1231 1243 0
-1232 1243 0
83 -1232 1244 0
-1233 1244 0
83 -1233 1245 0
-1234 1245 0
83 -1234 1246 0
-1235 1246 0
83 -1235 1247 0
-1236 1247 0
83 -1236 1248 0
-1237 1248 0
83 -1237 1249 0
-1238 1249 0
83 -1238 1250 0
-1239 1250 0
83 -1239 0
84 1251 0
-1240 1251 0
84 -1240 1252 0
-1241 1252 0
84 -1241 1253 0
-1242 1253 0
84 -1242 1254 0
-1243 1254 0
84 -1243 1255 0
-1244 1255 0
84 -1244 1256 0
-1245 1256 0
84 -1245 1257 0
-1246 1257 0
84 -1246 1258 0
-1247 1258 0
84 -1247 1259 0
-1248 1259 0
84 -1248 1260 0
-1249 1260 0
84 -1249 1261 0
-1250 1261 0
84 -1250 0
85 1262 0
-1251 1262 0
85 -1251 1263 0
-1252 1263 0
85 -1252 1264 0
-1253 1264 0
85 -1253 1265 0
-1254 1265 0
85 -1254 1266 0
-1255 1266 0
85 -1255 1267 0
-1256 1267 0
85 -1256 1268 0
-1257 1268 0
85 -1257 1269 0
-1258 1269 0
85 -1258 1270 0
-1259 1270 0
85 -1259 1271 0
-1260 1271 0
85 -1260 1272 0
-1261 1272 0
85 -1261 0
86 1273 0
-1262 1273 0
86 -1262 1274 0
-1263 1274 0
86 -1263 1275 0
-1264 1275 0
86 -1264 1276 0
-1265 1276 0
86 -1265 1277 0
-1266 1277 0
86 -1266 1278 0
-1267 1278 0
86 -1267 1279 0
-1268 1279 0
86 -1268 1280 0
-1269 1280 0
86 -1269 1281 0
-1270 1281 0
86 -1270 1282 0
-1271 1282 0
86 -1271 1283 0
-1272 1283 0
86 -1272 0
87 1284 0
-1273 1284 0
87 -1273 1285 0
-1274 1285 0
87 -1274 1286 0
-1275 1286 0
87 -1275 1287 0
-1276 1287 0
87 -1276 1288 0
-1277 1288 0
87 -1277 1289 0
-1278 1289 0
87 -1278 1290 0
-1279 1290 0
87 -1279 1291 0
-1280 1291 0
87 -1280 1292 0
-1281 1292 0
87 -1281 1293 0
-1282 1293 0
87 -1282 1294 0
-1283 1294 0
87 -1283 0
88 1295 0
-1284 1295 0
88 -1284 1296 0
-1285 1296 0
88 -1285 1297 0
-1286 1297 0
88 -1286 1298 0
-1287 1298 0
88 -1287 1299 0
-1288 1299 0
88 -1288 1300 0
-1289 1300 0
88 -1289 1301 0
-1290 1301 0
88 -1290 1302 0
-1291 1302 0
88 -1291 1303 0
-1292 1303 0
88 -1292 1304 0
-1293 1304 0
88 -1293 1305 0
-1294 1305 0
88 -1294 0
89 1306 0
-1295 1306 0
89 -1295 1307 0
-1296 1307 0
89 -1296 1308 0
-1297 1308 0
89 -1297 1309 0
-1298 1309 0
89 -1298 1310 0
-1299 1310 0
89 -1299 1311 0
-1300 1311 0
89 -1300 1312 0
-1301 1312 0
89 -1301 1313 0
-1302 1313 0
89 -1302 1314 0
-1303 1314 0
89 -1303 1315 0
-1304 1315 0
89 -1304 1316 0
-1305 1316 0
89 -1305 0
90 -1316 0
-73 1317 0
-1318 0
-1319 0
-1320 0
-1321 0
-1322 0
-74 1323 0
-1317 1323 0
-74 -1317 1324 0
-1318 1324 0
-74 -1318 1325 0
-1319 1325 0
-74 -1319 1326 0
-1320 1326 0
-74 -1320 1327 0
-1321 1327 0
-74 -1321 1328 0
-1322 1328 0
-74 -1322 0
-75 1329 0
-1323 1329 0
-75 -1323 1330 0
-1324 1330 0
-75 -1324 1331 0
-1325 1331 0
-75 -1325 1332 0
-1326 1332 0
-75 -1326 1333 0
-1327 1333 0
-75 -1327 1334 0
-1328 1334 0
-75 -1328 0
-76 1335 0
-1329 1335 0
-76 -1329 1336 0
-1330 1336 0
-76 -1330 1337 0
-1331 1337 0
-76 -1331 1338 0
-1332 1338 0
-76 -1332 1339 0
-1333 1339 0
-76 -1333 1340 0
-1334 1340 0
-76 -1334 0
-78 1341 0
-1335 1341 0
-78 -1335 1342 0
-1336 1342 0
-78 -1336 1343 0
-1337 1343 0
-78 -1337 1344 0
-1338 1344 0
-78 -1338 1345 0
-1339 1345 0
-78 -1339 1346 0
-1340 1346 0
-78 -1340 0
-79 1347 0
-1341 1347 0
-79 -1341 1348 0
-1342 1348 0
-79 -1342 1349 0
-1343 1349 0
-79 -1343 1350 0
-1344 1350 0
-79 -1344 1351 0
-1345 1351 0
-79 -1345 1352 0
-1346 1352 0
-79 -1346 0
-80 1353 0
-1347 1353 0
-80 -1347 1354 0
-1348 1354 0
-80 -1348 1355 0
-1349 1355 0
-80 -1349 1356 0
-1350 1356 0
-80 -1350 1357 0
-1351 1357 0
-80 -1351 1358 0
-1352 1358 0
-80 -1352 0
-81 1359 0
-1353 1359 0
-81 -1353 1360 0
-1354 1360 0
-81 -1354 1361 0
-1355 1361 0
-81 -1355 1362 0
-1356 1362 0
-81 -1356 1363 0
-1357 1363 0
-81 -1357 1364 0
-1358 1364 0
-81 -1358 0
-82 1365 0
-1359 1365 0
-82 -1359 1366 0
-1360 1366 0
-82 -1360 1367 0
-1361 1367 0
-82 -1361 1368 0
-1362 1368 0
-82 -1362 1369 0
-1363 1369 0
-82 -1363 1370 0
-1364 1370 0
-82 -1364 0
-83 1371 0
-1365 1371 0
-83 -1365 1372 0
-1366 1372 0
-83 -1366 1373 0
-1367 1373 0
-83 -1367 1374 0
-1368 1374 0
-83 -1368 1375 0
-1369 1375 0
-83 -1369 1376 0
-1370 1376 0
-83 -1370 0
-84 1377 0
-1371 1377 0
-84 -1371 1378 0
-1372 1378 0
-84 -1372 1379 0
-1373 1379 0
-84 -1373 1380 0
-1374 1380 0
-84 -1374 1381 0
-1375 1381 0
-84 -1375 1382 0
-1376 1382 0
-84 -1376 0
-85 1383 0
-1377 1383 0
-85 -1377 1384 0
-1378 1384 0
-85 -1378 1385 0
-1379 1385 0
-85 -1379 1386 0
-1380 1386 0
-85 -1380 1387 0
-1381 1387 0
-85 -1381 1388 0
-1382 1388 0
-85 -1382 0
-86 1389 0
-1383 1389 0
-86 -1383 1390 0
-1384 1390 0
-86 -1384 1391 0
-1385 1391 0
-86 -1385 1392 0
-1386 1392 0
-86 -1386 1393 0
-1387 1393 0
-86 -1387 1394 0
-1388 1394 0
-86 -1388 0
-87 1395 0
-1389 1395 0
-87 -1389 1396 0
-1390 1396 0
-87 -1390 1397 0
-1391 1397 0
-87 -1391 1398 0
-1392 1398 0
-87 -1392 1399 0
-1393 1399 0
-87 -1393 1400 0
-1394 1400 0
-87 -1394 0
-88 1401 0
-1395 1401 0
-88 -1395 1402 0
-1396 1402 0
-88 -1396 1403 0
-1397 1403 0
-88 -1397 1404 0
-1398 1404 0
-88 -1398 1405 0
-1399 1405 0
-88 -1399 1406 0
-1400 1406 0
-88 -1400 0
-89 1407 0
-1401 1407 0
-89 -1401 1408 0
-1402 1408 0
-89 -1402 1409 0
-1403 1409 0
-89 -1403 1410 0
-1404 1410 0
-89 -1404 1411 0
-1405 1411 0
-89 -1405 1412 0
-1406 1412 0
-89 -1406 0
-90 -1412 0
91 1413 0
-1414 0
-1415 0
-1416 0
-1417 0
-1418 0
-1419 0
-1420 0
-1421 0
-1422 0
-1423 0
92 1424 0
-1413 1424 0
92 -1413 1425 0
-1414 1425 0
92 -1414 1426 0
-1415 1426 0
92 -1415 1427 0
-1416 1427 0
92 -1416 1428 0
-1417 1428 0
92 -1417 1429 0
-1418 1429 0
92 -1418 1430 0
-1419 1430 0
92 -1419 1431 0
-1420 1431 0
92 -1420 1432 0
-1421 1432 0
92 -1421 1433 0
-1422 1433 0
92 -1422 1434 0
-1423 1434 0
92 -1423 0
93 1435 0
-1424 1435 0
93 -1424 1436 0
-1425 1436 0
93 -1425 1437 0
-1426 1437 0
93 -1426 1438 0
-1427 1438 0
93 -1427 1439 0
-1428 1439 0
93 -1428 1440 0
-1429 1440 0
93 -1429 1441 0
-1430 1441 0
93 -1430 1442 0
-1431 1442 0
93 -1431 1443 0
-1432 1443 0
93 -1432 1444 0
-1433 1444 0
93 -1433 1445 0
-1434 1445 0
93 -1434 0
94 1446 0
-1435 1446 0
94 -1435 1447 0
-1436 1447 0
94 -1436 1448 0
-1437 1448 0
94 -1437 1449 0
-1438 1449 0
94 -1438 1450 0
-1439 1450 0
94 -1439 1451 0
-1440 1451 0
94 -1440 1452 0
-1441 1452 0
94 -1441 1453 0
-1442 1453 0
94 -1442 1454 0
-1443 1454 0
94 -1443 1455 0
-1444 1455 0
94 -1444 1456 0
-1445 1456 0
94 -1445 0
95 1457 0
-1446 1457 0
95 -1446 1458 0
-1447 1458 0
95 -1447 1459 0
-1448 1459 0
95 -1448 1460 0
-1449 1460 0
95 -1449 1461 0
-1450 1461 0
95 -1450 1462 0
-1451 1462 0
95 -1451 1463 0
-1452 1463 0
95 -1452 1464 0
-1453 1464 0
95 -1453 1465 0
-1454 1465 0
95 -1454 1466 0
-1455 1466 0
95 -1455 1467 0
-1456 1467 0
95 -1456 0
97 1468 0
-1457 1468 0
97 -1457 1469 0
-1458 1469 0
97 -1458 1470 0
-1459 1470 0
97 -1459 1471 0
-1460 1471 0
97 -1460 1472 0
-1461 1472 0
97 -1461 1473 0
-1462 1473 0
97 -1462 1474 0
-1463 1474 0
97 -1463 1475 0
-1464 1475 0
97 -1464 1476 0
-1465 1476 0
97 -1465 1477 0
-1466 1477 0
97 -1466 1478 0
-1467 1478 0
97 -1467 0
98 1479 0
-1468 1479 0
98 -1468 1480 0
-1469 1480 0
98 -1469 1481 0
-1470 1481 0
98 -1470 1482 0
-1471 1482 0
98 -1471 1483 0
-1472 1483 0
98 -1472 1484 0
-1473 1484 0
98 -1473 1485 0
-1474 1485 0
98 -1474 1486 0
-1475 1486 0
98 -1475 1487 0
-1476 1487 0
98 -1476 1488 0
-1477 1488 0
98 -1477 1489 0
-1478 1489 0
98 -1478 0
99 1490 0
-1479 1490 0
99 -1479 1491 0
-1480 1491 0
99 -1480 1492 0
-1481 1492 0
99 -1481 1493 0
-1482 1493 0
99 -1482 1494 0
-1483 1494 0
99 -1483 1495 0
-1484 1495 0
99 -1484 1496 0
-1485 1496 0
99 -1485 1497 0
-1486 1497 0
99 -1486 1498 0
-1487 1498 0
99 -1487 1499 0
-1488 1499 0
99 -1488 1500 0
-1489 1500 0
99 -1489 0
100 1501 0
-1490 1501 0
100 -1490 1502 0
-1491 1502 0
100 -1491 1503 0
-1492 1503 0
100 -1492 1504 0
-1493 1504 0
100 -1493 1505 0
-1494 1505 0
100 -1494 1506 0
-1495 1506 0
100 -1495 1507 0
-1496 1507 0
100 -1496 1508 0
-1497 1508 0
100 -1497 1509 0
-1498 1509 0
100 -1498 1510 0
-1499 1510 0
100 -1499 1511 0
-1500 1511 0
100 -1500 0
101 1512 0
-1501 1512 0
101 -1501 1513 0
-1502 1513 0
101 -1502 1514 0
-1503 1514 0
101 -1503 1515 0
-1504 1515 0
101 -1504 1516 0
-1505 1516 0
101 -1505 1517 0
-1506 1517 0
101 -1506 1518 0
-1507 1518 0
101 -1507 1519 0
-1508 1519 0
101 -1508 1520 0
-1509 1520 0
101 -1509 1521 0
-1510 1521 0
101 -1510 1522 0
-1511 1522 0
101 -1511 0
102 1523 0
-1512 1523 0
102 -1512 1524 0
-1513 1524 0
102 -1513 1525 0
-1514 1525 0
102 -1514 1526 0
-1515 1526 0
102 -1515 1527 0
-1516 1527 0
102 -1516 1528 0
-1517 1528 0
102 -1517 1529 0
-1518 1529 0
102 -1518 1530 0
-1519 1530 0
102 -1519 1531 0
-1520 1531 0
102 -1520 1532 0
-1521 1532 0
102 -1521 1533 0
-1522 1533 0
102 -1522 0
103 1534 0
-1523 1534 0
103 -1523 1535 0
-1524 1535 0
103 -1524 1536 0
-1525 1536 0
103 -1525 1537 0
-1526 1537 0
103 -1526 1538 0
-1527 1538 0
103 -1527 1539 0
-1528 1539 0
103 -1528 1540 0
-1529 1540 0
103 -1529 1541 0
-1530 1541 0
103 -1530 1542 0
-1531 1542 0
103 -1531 1543 0
-1532 1543 0
103 -1532 1544 0
-1533 1544 0
103 -1533 0
104 1545 0
-1534 1545 0
104 -1534 1546 0
-1535 1546 0
104 -1535 1547 0
-1536 1547 0
104 -1536 1548 0
-1537 1548 0
104 -1537 1549 0
-1538 1549 0
104 -1538 1550 0
-1539 1550 0
104 -1539 1551 0
-1540 1551 0
104 -1540 1552 0
-1541 1552 0
104 -1541 1553 0
-1542 1553 0
104 -1542 1554 0
-1543 1554 0
104 -1543 1555 0
-1544 1555 0
104 -1544 0
105 1556 0
-1545 1556 0
105 -1545 1557 0
-1546 1557 0
105 -1546 1558 0
-1547 1558 0
105 -1547 1559 0
-1548 1559 0
105 -1548 1560 0
-1549 1560 0
105 -1549 1561 0
-1550 1561 0
105 -1550 1562 0
-1551 1562 0
105 -1551 1563 0
-1552 1563 0
105 -1552 1564 0
-1553 1564 0
105 -1553 1565 0
-1554 1565 0
105 -1554 1566 0
-1555 1566 0
105 -1555 0
106 1567 0
-1556 1567 0
106 -1556 1568 0
-1557 1568 0
106 -1557 1569 0
-1558 1569 0
106 -1558 1570 0
-1559 1570 0
106 -1559 1571 0
-1560 1571 0
106 -1560 1572 0
-1561 1572 0
106 -1561 1573 0
-1562 1573 0
106 -1562 1574 0
-1563 1574 0
106 -1563 1575 0
-1564 1575 0
106 -1564 1576 0
-1565 1576 0
106 -1565 1577 0
-1566 1577 0
106 -1566 0
107 1578 0
-1567 1578 0
107 -1567 1579 0
-1568 1579 0
107 -1568 1580 0
-1569 1580 0
107 -1569 1581 0
-1570 1581 0
107 -1570 1582 0
-1571 1582 0
107 -1571 1583 0
-1572 1583 0
107 -1572 1584 0
-1573 1584 0
107 -1573 1585 0
-1574 1585 0
107 -1574 1586 0
-1575 1586 0
107 -1575 1587 0
-1576 1587 0
107 -1576 1588 0
-1577 1588 0
107 -1577 0
108 -1588 0
-91 1589 0
-1590 0
-1591 0
-1592 0
-1593 0
-1594 0
-92 1595 0
-1589 1595 0
-92 -1589 1596 0
-1590 1596 0
-92 -1590 1597 0
-1591 1597 0
-92 -1591 1598 0
-1592 1598 0
-92 -1592 1599 0
-1593 1599 0
-92 -1593 1600 0
-1594 1600 0
-92 -1594 0
-93 1601 0
-1595 1601 0
-93 -1595 1602 0
-1596 1602 0
-93 -1596 1603 0
-1597 1603 0
-93 -1597 1604 0
-1598 1604 0
-93 -1598 1605 0
-1599 1605 0
-93 -1599 1606 0
-1600 1606 0
-93 -1600 0
-94 1607 0
-1601 1607 0
-94 -1601 1608 0
-1602 1608 0
-94 -1602 1609 0
-1603 1609 0
-94 -1603 1610 0
-1604 1610 0
-94 -1604 1611 0
-1605 1611 0
-94 -1605 1612 0
-1606 1612 0
-94 -1606 0
-95 1613 0
-1607 1613 0
-95 -1607 1614 0
-1608 1614 0
-95 -1608 1615 0
-1609 1615 0
-95 -1609 1616 0
-1610 1616 0
-95 -1610 1617 0
-1611 1617 0
-95 -1611 1618 0
-1612 1618 0
-95 -1612 0
-97 1619 0
-1613 1619 0
-97 -1613 1620 0
-1614 1620 0
-97 -1614 1621 0
-1615 1621 0
-97 -1615 1622 0
-1616 1622 0
-97 -1616 1623 0
-1617 1623 0
-97 -1617 1624 0
-1618 1624 0
-97 -1618 0
-98 1625 0
-1619 1625 0
-98 -1619 1626 0
-1620 1626 0
-98 -1620 1627 0
-1621 1627 0
-98 -1621 1628 0
-1622 1628 0
-98 -1622 1629 0
-1623 1629 0
-98 -1623 1630 0
-1624 1630 0
-98 -1624 0
-99 1631 0
-1625 1631 0
-99 -1625 1632 0
-1626 1632 0
-99 -1626 1633 0
-1627 1633 0
-99 -1627 1634 0
-1628 1634 0
-99 -1628 1635 0
-1629 1635 0
-99 -1629 1636 0
-1630 1636 0
-99 -1630 0
-100 1637 0
-1631 1637 0
-100 -1631 1638 0
-1632 1638 0
-100 -1632 1639 0
-1633 1639 0
-100 -1633 1640 0
-1634 1640 0
-100 -1634 1641 0
-1635 1641 0
-100 -1635 1642 0
-1636 1642 0
-100 -1636 0
-101 1643 0
-1637 1643 0
-101 -1637 1644 0
-1638 1644 0
-101 -1638 1645 0
-1639 1645 0
-101 -1639 1646 0
-1640 1646 0
-101 -1640 1647 0
-1641 1647 0
-101 -1641 1648 0
-1642 1648 0
-101 -1642 0
-102 1649 0
-1643 1649 0
-102 -1643 1650 0
-1644 1650 0
-102 -1644 1651 0
-1645 1651 0
-102 -1645 1652 0
-1646 1652 0
-102 -1646 1653 0
-1647 1653 0
-102 -1647 1654 0
-1648 1654 0
-102 -1648 0
-103 1655 0
-1649 1655 0
-103 -1649 1656 0
-1650 1656 0
-103 -1650 1657 0
-1651 1657 0
-103 -1651 1658 0
-1652 1658 0
-103 -1652 1659 0
-1653 1659 0
-103 -1653 1660 0
-1654 1660 0
-103 -1654 0
-104 1661 0
-1655 1661 0
-104 -1655 1662 0
-1656 1662 0
-104 -1656 1663 0
-1657 1663 0
-104 -1657 1664 0
-1658 1664 0
-104 -1658 1665 0
-1659 1665 0
-104 -1659 1666 0
-1660 1666 0
-104 -1660 0
-105 1667 0
-1661 1667 0
-105 -1661 1668 0
-1662 1668 0
-105 -1662 1669 0
-1663 1669 0
-105 -1663 1670 0
-1664 1670 0
-105 -1664 1671 0
-1665 1671 0
-105 -1665 1672 0
-1666 1672 0
-105 -1666 0
-106 1673 0
-1667 1673 0
-106 -1667 1674 0
-1668 1674 0
-106 -1668 1675 0
-1669 1675 0
-106 -1669 1676 0
-1670 1676 0
-106 -1670 1677 0
-1671 1677 0
-106 -1671 1678 0
-1672 1678 0
-106 -1672 0
-107 1679 0
-1673 1679 0
-107 -1673 1680 0
-1674 1680 0
-107 -1674 1681 0
-1675 1681 0
-107 -1675 1682 0
-1676 1682 0
-107 -1676 1683 0
-1677 1683 0
-107 -1677 1684 0
-1678 1684 0
-107 -1678 0
-108 -1684 0
109 1685 0
-1686 0
-1687 0
-1688 0
-1689 0
-1690 0
-1691 0
-1692 0
-1693 0
-1694 0
-1695 0
110 1696 0
-1685 1696 0
110 -1685 1697 0
-1686 1697 0
110 -1686 1698 0
-1687 1698 0
110 -1687 1699 0
-1688 1699 0
110 -1688 1700 0
-1689 1700 0
110 -1689 1701 0
-1690 1701 0
110 -1690 1702 0
-1691 1702 0
110 -1691 1703 0
-1692 1703 0
110 -1692 1704 0
-1693 1704 0
110 -1693 1705 0
-1694 1705 0
110 -1694 1706 0
-1695 1706 0
110 -1695 0
111 1707 0
-1696 1707 0
111 -1696 1708 0
-1697 1708 0
111 -1697 1709 0
-1698 1709 0
111 -1698 1710 0
-1699 1710 0
111 -1699 1711 0
-1700 1711 0
111 -1700 1712 0
-1701 1712 0
111 -1701 1713 0
-1702 1713 0
111 -1702 1714 0
-1703 1714 0
111 -1703 1715 0
-1704 1715 0
111 -1704 1716 0
-1705 1716 0
111 -1705 1717 0
-1706 1717 0
111 -1706 0
112 1718 0
-1707 1718 0
112 -1707 1719 0
-1708 1719 0
112 -1708 1720 0
-1709 1720 0
112 -1709 1721 0
-1710 1721 0
112 -1710 1722 0
-1711 1722 0
112 -1711 1723 0
-1712 1723 0
112 -1712 1724 0
-1713 1724 0
112 -1713 1725 0
-1714 1725 0
112 -1714 1726 0
-1715 1726 0
112 -1715 1727 0
-1716 1727 0
112 -1716 1728 0
-1717 1728 0
112 -1717 0
113 1729 0
-1718 1729 0
113 -1718 1730 0
-1719 1730 0
113 -1719 1731 0
-1720 1731 0
113 -1720 1732 0
-1721 1732 0
113 -1721 1733 0
-1722 1733 0
113 -1722 1734 0
-1723 1734 0
113 -1723 1735 0
-1724 1735 0
113 -1724 1736 0
-1725 1736 0
113 -1725 1737 0
-1726 1737 0
113 -1726 1738 0
-1727 1738 0
113 -1727 1739 0
-1728 1739 0
113 -1728 0
114 1740 0
-1729 1740 0
114 -1729 1741 0
-1730 1741 0
114 -1730 1742 0
-1731 1742 0
114 -1731 1743 0
-1732 1743 0
114 -1732 1744 0
-1733 1744 0
114 -1733 1745 0
-1734 1745 0
114 -1734 1746 0
-1735 1746 0
114 -1735 1747 0
-1736 1747 0
114 -1736 1748 0
-1737 1748 0
114 -1737 1749 0
-1738 1749 0
114 -1738 1750 0
-1739 1750 0
114 -1739 0
116 1751 0
-1740 1751 0
116 -1740 1752 0
-1741 1752 0
116 -1741 1753 0
-1742 1753 0
116 -1742 1754 0
-1743 1754 0
116 -1743 1755 0
-1744 1755 0
116 -1744 1756 0
-1745 1756 0
116 -1745 1757 0
-1746 1757 0
116 -1746 1758 0
-1747 1758 0
116 -1747 1759 0
-1748 1759 0
116 -1748 1760 0
-1749 1760 0
116 -1749 1761 0
-1750 1761 0
116 -1750 0
117 1762 0
-1751 1762 0
117 -1751 1763 0
-1752 1763 0
117 -1752 1764 0
-1753 1764 0
117 -1753 1765 0
-1754 1765 0
117 -1754 1766 0
-1755 1766 0
117 -1755 1767 0
-1756 1767 0
117 -1756 1768 0
-1757 1768 0
117 -1757 1769 0
-1758 1769 0
117 -1758 1770 0
-1759 1770 0
117 -1759 1771 0
-1760 1771 0
117 -1760 1772 0
-1761 1772 0
117 -1761 0
118 1773 0
-1762 1773 0
118 -1762 1774 0
-1763 1774 0
118 -1763 1775 0
-1764 1775 0
118 -1764 1776 0
-1765 1776 0
118 -1765 1777 0
-1766 1777 0
118 -1766 1778 0
-1767 1778 0
118 -1767 1779 0
-1768 1779 0
118 -1768 1780 0
-1769 1780 0
118 -1769 1781 0
-1770 1781 0
118 -1770 1782 0
-1771 1782 0
118 -1771 1783 0
-1772 1783 0
118 -1772 0
119 1784 0
-1773 1784 0
119 -1773 1785 0
-1774 1785 0
119 -1774 1786 0
-1775 1786 0
119 -1775 1787 0
-1776 1787 0
119 -1776 1788 0
-1777 1788 0
119 -1777 1789 0
-1778 1789 0
119 -1778 1790 0
-1779 1790 0
119 -1779 1791 0
-1780 1791 0
119 -1780 1792 0
-1781 1792 0
119 -1781 1793 0
-1782 1793 0
119 -1782 1794 0
-1783 1794 0
119 -1783 0
120 1795 0
-1784 1795 0
120 -1784 1796 0
-1785 1796 0
120 -1785 1797 0
-1786 1797 0
120 -1786 1798 0
-1787 1798 0
120 -1787 1799 0
-1788 1799 0
120 -1788 1800 0
-1789 1800 0
120 -1789 1801 0
-1790 1801 0
120 -1790 1802 0
-1791 1802 0
120 -1791 1803 0
-1792 1803 0
120 -1792 1804 0
-1793 1804 0
120 -1793 1805 0
-1794 1805 0
120 -1794 0
121 1806 0
-1795 1806 0
121 -1795 1807 0
-1796 1807 0
121 -1796 1808 0
-1797 1808 0
121 -1797 1809 0
-1798 1809 0
121 -1798 1810 0
-1799 1810 0
121 -1799 1811 0
-1800 1811 0
121 -1800 1812 0
-1801 1812 0
121 -1801 1813 0
-1802 1813 0
121 -1802 1814 0
-1803 1814 0
121 -1803 1815 0
-1804 1815 0
121 -1804 1816 0
-1805 1816 0
121 -1805 0
122 1817 0
-1806 1817 0
122 -1806 1818 0
-1807 1818 0
122 -1807 1819 0
-1808 1819 0
122 -1808 1820 0
-1809 1820 0
122 -1809 1821 0
-1810 1821 0
122 -1810 1822 0
-1811 1822 0
122 -1811 1823 0
-1812 1823 0
122 -1812 1824 0
-1813 1824 0
122 -1813 1825 0
-1814 1825 0
122 -1814 1826 0
-1815 1826 0
122 -1815 1827 0
-1816 1827 0
122 -1816 0
123 1828 0
-1817 1828 0
123 -1817 1829 0
-1818 1829 0
123 -1818 1830 0
-1819 1830 0
123 -1819 1831 0
-1820 1831 0
123 -1820 1832 0
-1821 1832 0
123 -1821 1833 0
-1822 1833 0
123 -1822 1834 0
-1823 1834 0
123 -1823 1835 0
-1824 1835 0
123 -1824 1836 0
-1825 1836 0
123 -1825 1837 0
-1826 1837 0
123 -1826 1838 0
-1827 1838 0
123 -1827 0
124 1839 0
-1828 1839 0
124 -1828 1840 0
-1829 1840 0
124 -1829 1841 0
-1830 1841 0
124 -1830 1842 0
-1831 1842 0
124 -1831 1843 0
-1832 1843 0
124 -1832 1844 0
-1833 1844 0
124 -1833 1845 0
-1834 1845 0
124 -1834 1846 0
-1835 1846 0
124 -1835 1847 0
-1836 1847 0
124 -1836 1848 0
-1837 1848 0
124 -1837 1849 0
-1838 1849 0
124 -1838 0
125 1850 0
-1839 1850 0
125 -1839 1851 0
-1840 1851 0
125 -1840 1852 0
-1841 1852 0
125 -1841 1853 0
-1842 1853 0
125 -1842 1854 0
-1843 1854 0
125 -1843 1855 0
-1844 1855 0
125 -1844 1856 0
-1845 1856 0
125 -1845 1857 0
-1846 1857 0
125 -1846 1858 0
-1847 1858 0
125 -1847 1859 0
-1848 1859 0
125 -1848 1860 0
-1849 1860 0
125 -1849 0
126 -1860 0
-109 1861 0
-1862 0
-1863 0
-1864 0
-1865 0
-1866 0
-110 1867 0
-1861 1867 0
-110 -1861 1868 0
-1862 1868 0
-110 -1862 1869 0
-1863 1869 0
-110 -1863 1870 0
-1864 1870 0
-110 -1864 1871 0
-1865 1871 0
-110 -1865 1872 0
-1866 1872 0
-110 -1866 0
-111 1873 0
-1867 1873 0
-111 -1867 1874 0
-1868 1874 0
-111 -1868 1875 0
-1869 1875 0
-111 -1869 1876 0
-1870 1876 0
-111 -1870 1877 0
-1871 1877 0
-111 -1871 1878 0
-1872 1878 0
-111 -1872 0
-112 1879 0
-1873 1879 0
-112 -1873 1880 0
-1874 1880 0
-112 -1874 1881 0
-1875 1881 0
-112 -1875 1882 0
-1876 1882 0
-112 -1876 1883 0
-1877 1883 0
-112 -1877 1884 0
-1878 1884 0
-112 -1878 0
-113 1885 0
-1879 1885 0
-113 -1879 1886 0
-1880 1886 0
-113 -1880 1887 0
-1881 1887 0
-113 -1881 1888 0
-1882 1888 0
-113 -1882 1889 0
-1883 1889 0
-113 -1883 1890 0
-1884 1890 0
-113 -1884 0
-114 1891 0
-1885 1891 0
-114 -1885 1892 0
-1886 1892 0
-114 -1886 1893 0
-1887 1893 0
-114 -1887 1894 0
-1888 1894 0
-114 -1888 1895 0
-1889 1895 0
-114 -1889 1896 0
-1890 1896 0
-114 -1890 0
-116 1897 0
-1891 1897 0
-116 -1891 1898 0
-1892 1898 0
-116 -1892 1899 0
-1893 1899 0
-116 -1893 1900 0
-1894 1900 0
-116 -1894 1901 0
-1895 1901 0
-116 -1895 1902 0
-1896 1902 0
-116 -1896 0
-117 1903 0
-1897 1903 0
-117 -1897 1904 0
-1898 1904 0
-117 -1898 1905 0
-1899 1905 0
-117 -1899 1906 0
-1900 1906 0
-117 -1900 1907 0
-1901 1907 0
-117 -1901 1908 0
-1902 1908 0
-117 -1902 0
-118 1909 0
-1903 1909 0
-118 -1903 1910 0
-1904 1910 0
-118 -1904 1911 0
-1905 1911 0
-118 -1905 1912 0
-1906 1912 0
-118 -1906 1913 0
-1907 1913 0
-118 -1907 1914 0
-1908 1914 0
-118 -1908 0
-119 1915 0
-1909 1915 0
-119 -1909 1916 0
-1910 1916 0
-119 -1910 1917 0
-1911 1917 0
-119 -1911 1918 0
-1912 1918 0
-119 -1912 1919 0
-1913 1919 0
-119 -1913 1920 0
-1914 1920 0
-119 -1914 0
-120 1921 0
-1915 1921 0
-120 -1915 1922 0
-1916 1922 0
-120 -1916 1923 0
-1917 1923 0
-120 -1917 1924 0
-1918 1924 0
-120 -1918 1925 0
-1919 1925 0
-120 -1919 1926 0
-1920 1926 0
-120 -1920 0
-121 1927 0
-1921 1927 0
-121 -1921 1928 0
-1922 1928 0
-121 -1922 1929 0
-1923 1929 0
-121 -1923 1930 0
-1924 1930 0
-121 -1924 1931 0
-1925 1931 0
-121 -1925 1932 0
-1926 1932 0
-121 -1926 0
-122 1933 0
-1927 1933 0
-122 -1927 1934 0
-1928 1934 0
-122 -1928 1935 0
-1929 1935 0
-122 -1929 1936 0
-1930 1936 0
-122 -1930 1937 0
-1931 1937 0
-122 -1931 1938 0
-1932 1938 0
-122 -1932 0
-123 1939 0
-1933 1939 0
-123 -1933 1940 0
-1934 1940 0
-123 -1934 1941 0
-1935 1941 0
-123 -1935 1942 0
-1936 1942 0
-123 -1936 1943 0
-1937 1943 0
-123 -1937 1944 0
-1938 1944 0
-123 -1938 0
-124 1945 0
-1939 1945 0
-124 -1939 1946 0
-1940 1946 0
-124 -1940 1947 0
-1941 1947 0
-124 -1941 1948 0
-1942 1948 0
-124 -1942 1949 0
-1943 1949 0
-124 -1943 1950 0
-1944 1950 0
-124 -1944 0
-125 1951 0
-1945 1951 0
-125 -1945 1952 0
-1946 1952 0
-125 -1946 1953 0
-1947 1953 0
-125 -1947 1954 0
-1948 1954 0
-125 -1948 1955 0
-1949 1955 0
-125 -1949 1956 0
-1950 1956 0
-125 -1950 0
-126 -1956 0
128 1957 0
-1958 0
-1959 0
-1960 0
-1961 0
-1962 0
-1963 0
-1964 0
-1965 0
-1966 0
-1967 0
129 1968 0
-1957 1968 0
129 -1957 1969 0
-1958 1969 0
129 -1958 1970 0
-1959 1970 0
129 -1959 1971 0
-1960 1971 0
129 -1960 1972 0
-1961 1972 0
129 -1961 1973 0
-1962 1973 0
129 -1962 1974 0
-1963 1974 0
129 -1963 1975 0
-1964 1975 0
129 -1964 1976 0
-1965 1976 0
129 -1965 1977 0
-1966 1977 0
129 -1966 1978 0
-1967 1978 0
129 -1967 0
130 1979 0
-1968 1979 0
130 -1968 1980 0
-1969 1980 0
130 -1969 1981 0
-1970 1981 0
130 -1970 1982 0
-1971 1982 0
130 -1971 1983 0
-1972 1983 0
130 -1972 1984 0
-1973 1984 0
130 -1973 1985 0
-1974 1985 0
130 -1974 1986 0
-1975 1986 0
130 -1975 1987 0
-1976 1987 0
130 -1976 1988 0
-1977 1988 0
130 -1977 1989 0
-1978 1989 0
130 -1978 0
131 1990 0
-1979 1990 0
131 -1979 1991 0
-1980 1991 0
131 -1980 1992 0
-1981 1992 0
131 -1981 1993 0
-1982 1993 0
131 -1982 1994 0
-1983 1994 0
131 -1983 1995 0
-1984 1995 0
131 -1984 1996 0
-1985 1996 0
131 -1985 1997 0
-1986 1997 0
131 -1986 1998 0
-1987 1998 0
131 -1987 1999 0
-1988 1999 0
131 -1988 2000 0
-1989 2000 0
131 -1989 0
132 2001 0
-1990 2001 0
132 -1990 2002 0
-1991 2002 0
132 -1991 2003 0
-1992 2003 0
132 -1992 2004 0
-1993 2004 0
132 -1993 2005 0
-1994 2005 0
132 -1994 2006 0
-1995 2006 0
132 -1995 2007 0
-1996 2007 0
132 -1996 2008 0
-1997 2008 0
132 -1997 2009 0
-1998 2009 0
132 -1998 2010 0
-1999 2010 0
132 -1999 2011 0
-2000 2011 0
132 -2000 0
133 2012 0
-2001 2012 0
133 -2001 2013 0
-2002 2013 0
133 -2002 2014 0
-2003 2014 0
133 -2003 2015 0
-2004 2015 0
133 -2004 2016 0
-2005 2016 0
133 -2005 2017 0
-2006 2017 0
133 -2006 2018 0
-2007 2018 0
133 -2007 2019 0
-2008 2019 0
133 -2008 2020 0
-2009 2020 0
133 -2009 2021 0
-2010 2021 0
133 -2010 2022 0
-2011 2022 0
133 -2011 0
135 2023 0
-2012 2023 0
135 -2012 2024 0
-2013 2024 0
135 -2013 2025 0
-2014 2025 0
135 -2014 2026 0
-2015 2026 0
135 -2015 2027 0
-2016 2027 0
135 -2016 2028 0
-2017 2028 0
135 -2017 2029 0
-2018 2029 0
135 -2018 2030 0
-2019 2030 0
135 -2019 2031 0
-2020 2031 0
135 -2020 2032 0
-2021 2032 0
135 -2021 2033 0
-2022 2033 0
135 -2022 0
136 2034 0
-2023 2034 0
136 -2023 2035 0
-2024 2035 0
136 -2024 2036 0
-2025 2036 0
136 -2025 2037 0
-2026 2037 0
136 -2026 2038 0
-2027 2038 0
136 -2027 2039 0
-2028 2039 0
136 -2028 2040 0
-2029 2040 0
136 -2029 2041 0
-2030 2041 0
136 -2030 2042 0
-2031 2042 0
136 -2031 2043 0
-2032 2043 0
136 -2032 2044 0
-2033 2044 0
136 -2033 0
137 2045 0
-2034 2045 0
137 -2034 2046 0
-2035 2046 0
137 -2035 2047 0
-2036 2047 0
137 -2036 2048 0
-2037 2048 0
137 -2037 2049 0
-2038 2049 0
137 -2038 2050 0
-2039 2050 0
137 -2039 2051 0
-2040 2051 0
137 -2040 2052 0
-2041 2052 0
137 -2041 2053 0
-2042 2053 0
137 -2042 2054 0
-2043 2054 0
137 -2043 2055 0
-2044 2055 0
137 -2044 0
138 2056 0
-2045 2056 0
138 -2045 2057 0
-2046 2057 0
138 -2046 2058 0
-2047 2058 0
138 -2047 2059 0
-2048 2059 0
138 -2048 2060 0
-2049 2060 0
138 -2049 2061 0
-2050 2061 0
138 -2050 2062 0
-2051 2062 0
138 -2051 2063 0
-2052 2063 0
138 -2052 2064 0
-2053 2064 0
138 -2053 2065 0
-2054 2065 0
138 -2054 2066 0
-2055 2066 0
138 -2055 0
139 2067 0
-2056 2067 0
139 -2056 2068 0
-2057 2068 0
139 -2057 2069 0
-2058 2069 0
139 -2058 2070 0
-2059 2070 0
139 -2059 2071 0
-2060 2071 0
139 -2060 2072 0
-2061 2072 0
139 -2061 2073 0
-2062 2073 0
139 -2062 2074 0
-2063 2074 0
139 -2063 2075 0
-2064 2075 0
139 -2064 2076 0
-2065 2076 0
139 -2065 2077 0
-2066 2077 0
139 -2066 0
140 2078 0
-2067 2078 0
140 -2067 2079 0
-2068 2079 0
140 -2068 2080 0
-2069 2080 0
140 -2069 2081 0
-2070 2081 0
140 -2070 2082 0
-2071 2082 0
140 -2071 2083 0
-2072 2083 0
140 -2072 2084 0
-2073 2084 0
140 -2073 2085 0
-2074 2085 0
140 -2074 2086 0
-2075 2086 0
140 -2075 2087 0
-2076 2087 0
140 -2076 2088 0
-2077 2088 0
140 -2077 0
141 2089 0
-2078 2089 0
141 -2078 2090 0
-2079 2090 0
141 -2079 2091 0
-2080 2091 0
141 -2080 2092 0
-2081 2092 0
141 -2081 2093 0
-2082 2093 0
141 -2082 2094 0
-2083 2094 0
141 -2083 2095 0
-2084 2095 0
141 -2084 2096 0
-2085 2096 0
141 -2085 2097 0
-2086 2097 0
141 -2086 2098 0
-2087 2098 0
141 -2087 2099 0
-2088 2099 0
141 -2088 0
142 2100 0
-2089 2100 0
142 -2089 2101 0
-2090 2101 0
142 -2090 2102 0
-2091 2102 0
142 -2091 2103 0
-2092 2103 0
142 -2092 2104 0
-2093 2104 0
142 -2093 2105 0
-2094 2105 0
142 -2094 2106 0
-2095 2106 0
142 -2095 2107 0
-2096 2107 0
142 -2096 2108 0
-2097 2108 0
142 -2097 2109 0
-2098 2109 0
142 -2098 2110 0
-2099 2110 0
142 -2099 0
143 2111 0
-2100 2111 0
143 -2100 2112 0
-2101 2112 0
143 -2101 2113 0
-2102 2113 0
143 -2102 2114 0
-2103 2114 0
143 -2103 2115 0
-2104 2115 0
143 -2104 2116 0
-2105 2116 0
143 -2105 2117 0
-2106 2117 0
143 -2106 2118 0
-2107 2118 0
143 -2107 2119 0
-2108 2119 0
143 -2108 2120 0
-2109 2120 0
143 -2109 2121 0
-2110 2121 0
143 -2110 0
144 -2121 0
-128 2122 0
-2123 0
-2124 0
-2125 0
-2126 0
-129 2127 0
-2122 2127 0
-129 -2122 2128 0
-2123 2128 0
-129 -2123 2129 0
-2124 2129 0
-129 -2124 2130 0
-2125 2130 0
-129 -2125 2131 0
-2126 2131 0
-129 -2126 0
-130 2132 0
-2127 2132 0
-130 -2127 2133 0
-2128 2133 0
-130 -2128 2134 0
-2129 2134 0
-130 -2129 2135 0
-2130 2135 0
-130 -2130 2136 0
-2131 2136 0
-130 -2131 0
-131 2137 0
-2132 2137 0
-131 -2132 2138 0
-2133 2138 0
-131 -2133 2139 0
-2134 2139 0
-131 -2134 2140 0
-2135 2140 0
-131 -2135 2141 0
-2136 2141 0
-131 -2136 0
-132 2142 0
-2137 2142 0
-132 -2137 2143 0
-2138 2143 0
-132 -2138 2144 0
-2139 2144 0
-132 -2139 2145 0
-2140 2145 0
-132 -2140 2146 0
-2141 2146 0
-132 -2141 0
-133 2147 0
-2142 2147 0
-133 -2142 2148 0
-2143 2148 0
-133 -2143 2149 0
-2144 2149 0
-133 -2144 2150 0
-2145 2150 0
-133 -2145 2151 0
-2146 2151 0
-133 -2146 0
-135 2152 0
-2147 2152 0
-135 -2147 2153 0
-2148 2153 0
-135 -2148 2154 0
-2149 2154 0
-135 -2149 2155 0
-2150 2155 0
-135 -2150 2156 0
-2151 2156 0
-135 -2151 0
-136 2157 0
-2152 2157 0
-136 -2152 2158 0
-2153 2158 0
-136 -2153 2159 0
-2154 2159 0
-136 -2154 2160 0
-2155 2160 0
-136 -2155 2161 0
-2156 2161 0
-136 -2156 0
-137 2162 0
-2157 2162 0
-137 -2157 2163 0
-2158 2163 0
-137 -2158 2164 0
-2159 2164 0
-137 -2159 2165 0
-2160 2165 0
-137 -2160 2166 0
-2161 2166 0
-137 -2161 0
-138 2167 0
-2162 2167 0
-138 -2162 2168 0
-2163 2168 0
-138 -2163 2169 0
-2164 2169 0
-138 -2164 2170 0
-2165 2170 0
-138 -2165 2171 0
-2166 2171 0
-138 -2166 0
-139 2172 0
-2167 2172 0
-139 -2167 2173 0
-2168 2173 0
-139 -2168 2174 0
-2169 2174 0
-139 -2169 2175 0
-2170 2175 0
-139 -2170 2176 0
-2171 2176 0
-139 -2171 0
-140 2177 0
-2172 2177 0
-140 -2172 2178 0
-2173 2178 0
-140 -2173 2179 0
-2174 2179 0
-140 -2174 2180 0
-2175 2180 0
-140 -2175 2181 0
-2176 2181 0
-140 -2176 0
-141 2182 0
-2177 2182 0
-141 -2177 2183 0
-2178 2183 0
-141 -2178 2184 0
-2179 2184 0
-141 -2179 2185 0
-2180 2185 0
-141 -2180 2186 0
-2181 2186 0
-141 -2181 0
-142 2187 0
-2182 2187 0
-142 -2182 2188 0
-2183 2188 0
-142 -2183 2189 0
-2184 2189 0
-142 -2184 2190 0
-2185 2190 0
-142 -2185 2191 0
-2186 2191 0
-142 -2186 0
-143 2192 0
-2187 2192 0
-143 -2187 2193 0
-2188 2193 0
-143 -2188 2194 0
-2189 2194 0
-143 -2189 2195 0
-2190 2195 0
-143 -2190 2196 0
-2191 2196 0
-143 -2191 0
-144 -2196 0
146 2197 0
-2198 0
-2199 0
-2200 0
-2201 0
-2202 0
-2203 0
-2204 0
-2205 0
-2206 0
-2207 0
147 2208 0
-2197 2208 0
147 -2197 2209 0
-2198 2209 0
147 -2198 2210 0
-2199 2210 0
147 -2199 2211 0
-2200 2211 0
147 -2200 2212 0
-2201 2212 0
147 -2201 2213 0
-2202 2213 0
147 -2202 2214 0
-2203 2214 0
147 -2203 2215 0
-2204 2215 0
147 -2204 2216 0
-2205 2216 0
147 -2205 2217 0
-2206 2217 0
147 -2206 2218 0
-2207 2218 0
147 -2207 0
148 2219 0
-2208 2219 0
148 -2208 2220 0
-2209 2220 0
148 -2209 2221 0
-2210 2221 0
148 -2210 2222 0
-2211 2222 0
148 -2211 2223 0
-2212 2223 0
148 -2212 2224 0
-2213 2224 0
148 -2213 2225 0
-2214 2225 0
148 -2214 2226 0
-2215 2226 0
148 -2215 2227 0
-2216 2227 0
148 -2216 2228 0
-2217 2228 0
148 -2217 2229 0
-2218 2229 0
148 -2218 0
149 2230 0
-2219 2230 0
149 -2219 2231 0
-2220 2231 0
149 -2220 2232 0
-2221 2232 0
149 -2221 2233 0
-2222 2233 0
149 -2222 2234 0
-2223 2234 0
149 -2223 2235 0
-2224 2235 0
149 -2224 2236 0
-2225 2236 0
149 -2225 2237 0
-2226 2237 0
149 -2226 2238 0
-2227 2238 0
149 -2227 2239 0
-2228 2239 0
149 -2228 2240 0
-2229 2240 0
149 -2229 0
150 2241 0
-2230 2241 0
150 -2230 2242 0
-2231 2242 0
150 -2231 2243 0
-2232 2243 0
150 -2232 2244 0
-2233 2244 0
150 -2233 2245 0
-2234 2245 0
150 -2234 2246 0
-2235 2246 0
150 -2235 2247 0
-2236 2247 0
150 -2236 2248 0
-2237 2248 0
150 -2237 2249 0
-2238 2249 0
150 -2238 2250 0
-2239 2250 0
150 -2239 2251 0
-2240 2251 0
150 -2240 0
151 2252 0
-2241 2252 0
151 -2241 2253 0
-2242 2253 0
151 -2242 2254 0
-2243 2254 0
151 -2243 2255 0
-2244 2255 0
151 -2244 2256 0
-2245 2256 0
151 -2245 2257 0
-2246 2257 0
151 -2246 2258 0
-2247 2258 0
151 -2247 2259 0
-2248 2259 0
151 -2248 2260 0
-2249 2260 0
151 -2249 2261 0
-2250 2261 0
151 -2250 2262 0
-2251 2262 0
151 -2251 0
152 2263 0
-2252 2263 0
152 -2252 2264 0
-2253 2264 0
152 -2253 2265 0
-2254 2265 0
152 -2254 2266 0
-2255 2266 0
152 -2255 2267 0
-2256 2267 0
152 -2256 2268 0
-2257 2268 0
152 -2257 2269 0
-2258 2269 0
152 -2258 2270 0
-2259 2270 0
152 -2259 2271 0
-2260 2271 0
152 -2260 2272 0
-2261 2272 0
152 -2261 2273 0
-2262 2273 0
152 -2262 0
154 2274 0
-2263 2274 0
154 -2263 2275 0
-2264 2275 0
154 -2264 2276 0
-2265 2276 0
154 -2265 2277 0
-2266 2277 0
154 -2266 2278 0
-2267 2278 0
154 -2267 2279 0
-2268 2279 0
154 -2268 2280 0
-2269 2280 0
154 -2269 2281 0
-2270 2281 0
154 -2270 2282 0
-2271 2282 0
154 -2271 2283 0
-2272 2283 0
154 -2272 2284 0
-2273 2284 0
154 -2273 0
155 2285 0
-2274 2285 0
155 -2274 2286 0
-2275 2286 0
155 -2275 2287 0
-2276 2287 0
155 -2276 2288 0
-2277 2288 0
155 -2277 2289 0
-2278 2289 0
155 -2278 2290 0
-2279 2290 0
155 -2279 2291 0
-2280 2291 0
155 -2280 2292 0
-2281 2292 0
155 -2281 2293 0
-2282 2293 0
155 -2282 2294 0
-2283 2294 0
155 -2283 2295 0
-2284 2295 0
155 -2284 0
156 2296 0
-2285 2296 0
156 -2285 2297 0
-2286 2297 0
156 -2286 2298 0
-2287 2298 0
156 -2287 2299 0
-2288 2299 0
156 -2288 2300 0
-2289 2300 0
156 -2289 2301 0
-2290 2301 0
156 -2290 2302 0
-2291 2302 0
156 -2291 2303 0
-2292 2303 0
156 -2292 2304 0
-2293 2304 0
156 -2293 2305 0
-2294 2305 0
156 -2294 2306 0
-2295 2306 0
156 -2295 0
157 2307 0
-2296 2307 0
157 -2296 2308 0
-2297 2308 0
157 -2297 2309 0
-2298 2309 0
157 -2298 2310 0
-2299 2310 0
157 -2299 2311 0
-2300 2311 0
157 -2300 2312 0
-2301 2312 0
157 -2301 2313 0
-2302 2313 0
157 -2302 2314 0
-2303 2314 0
157 -2303 2315 0
-2304 2315 0
157 -2304 2316 0
-2305 2316 0
157 -2305 2317 0
-2306 2317 0
157 -2306 0
158 2318 0
-2307 2318 0
158 -2307 2319 0
-2308 2319 0
158 -2308 2320 0
-2309 2320 0
158 -2309 2321 0
-2310 2321 0
158 -2310 2322 0
-2311 2322 0
158 -2311 2323 0
-2312 2323 0
158 -2312 2324 0
-2313 2324 0
158 -2313 2325 0
-2314 2325 0
158 -2314 2326 0
-2315 2326 0
158 -2315 2327 0
-2316 2327 0
158 -2316 2328 0
-2317 2328 0
158 -2317 0
159 2329 0
-2318 2329 0
159 -2318 2330 0
-2319 2330 0
159 -2319 2331 0
-2320 2331 0
159 -2320 2332 0
-2321 2332 0
159 -2321 2333 0
-2322 2333 0
159 -2322 2334 0
-2323 2334 0
159 -2323 2335 0
-2324 2335 0
159 -2324 2336 0
-2325 2336 0
159 -2325 2337 0
-2326 2337 0
159 -2326 2338 0
-2327 2338 0
159 -2327 2339 0
-2328 2339 0
159 -2328 0
160 2340 0
-2329 2340 0
160 -2329 2341 0
-2330 2341 0
160 -2330 2342 0
-2331 2342 0
160 -2331 2343 0
-2332 2343 0
160 -2332 2344 0
-2333 2344 0
160 -2333 2345 0
-2334 2345 0
160 -2334 2346 0
-2335 2346 0
160 -2335 2347 0
-2336 2347 0
160 -2336 2348 0
-2337 2348 0
160 -2337 2349 0
-2338 2349 0
160 -2338 2350 0
-2339 2350 0
160 -2339 0
161 2351 0
-2340 2351 0
161 -2340 2352 0
-2341 2352 0
161 -2341 2353 0
-2342 2353 0
161 -2342 2354 0
-2343 2354 0
161 -2343 2355 0
-2344 2355 0
161 -2344 2356 0
-2345 2356 0
161 -2345 2357 0
-2346 2357 0
161 -2346 2358 0
-2347 2358 0
161 -2347 2359 0
-2348 2359 0
161 -2348 2360 0
-2349 2360 0
161 -2349 2361 0
-2350 2361 0
161 -2350 0
162 -2361 0
-146 2362 0
-2363 0
-2364 0
-2365 0
-2366 0
-147 2367 0
-2362 2367 0
-147 -2362 2368 0
-2363 2368 0
-147 -2363 2369 0
-2364 2369 0
-147 -2364 2370 0
-2365 2370 0
-147 -2365 2371 0
-2366 2371 0
-147 -2366 0
-148 2372 0
-2367 2372 0
-148 -2367 2373 0
-2368 2373 0
-148 -2368 2374 0
-2369 2374 0
-148 -2369 2375 0
-2370 2375 0
-148 -2370 2376 0
-2371 2376 0
-148 -2371 0
-149 2377 0
-2372 2377 0
-149 -2372 2378 0
-2373 2378 0
-149 -2373 2379 0
-2374 2379 0
-149 -2374 2380 0
-2375 2380 0
-149 -2375 2381 0
-2376 2381 0
-149 -2376 0
-150 2382 0
-2377 2382 0
-150 -2377 2383 0
-2378 2383 0
-150 -2378 2384 0
-2379 2384 0
-150 -2379 2385 0
-2380 2385 0
-150 -2380 2386 0
-2381 2386 0
-150 -2381 0
-151 2387 0
-2382 2387 0
-151 -2382 2388 0
-2383 2388 0
-151 -2383 2389 0
-2384 2389 0
-151 -2384 2390 0
-2385 2390 0
-151 -2385 2391 0
-2386 2391 0
-151 -2386 0
-152 2392 0
-2387 2392 0
-152 -2387 2393 0
-2388 2393 0
-152 -2388 2394 0
-2389 2394 0
-152 -2389 2395 0
-2390 2395 0
-152 -2390 2396 0
-2391 2396 0
-152 -2391 0
-154 2397 0
-2392 2397 0
-154 -2392 2398 0
-2393 2398 0
-154 -2393 2399 0
-2394 2399 0
-154 -2394 2400 0
-2395 2400 0
-154 -2395 2401 0
-2396 2401 0
-154 -2396 0
-155 2402 0
-2397 2402 0
-155 -2397 2403 0
-2398 2403 0
-155 -2398 2404 0
-2399 2404 0
-155 -2399 2405 0
-2400 2405 0
-155 -2400 2406 0
-2401 2406 0
-155 -2401 0
-156 2407 0
-2402 2407 0
-156 -2402 2408 0
-2403 2408 0
-156 -2403 2409 0
-2404 2409 0
-156 -2404 2410 0
-2405 2410 0
-156 -2405 2411 0
-2406 2411 0
-156 -2406 0
-157 2412 0
-2407 2412 0
-157 -2407 2413 0
-2408 2413 0
-157 -2408 2414 0
-2409 2414 0
-157 -2409 2415 0
-2410 2415 0
-157 -2410 2416 0
-2411 2416 0
-157 -2411 0
-158 2417 0
-2412 2417 0
-158 -2412 2418 0
-2413 2418 0
-158 -2413 2419 0
-2414 2419 0
-158 -2414 2420 0
-2415 2420 0
-158 -2415 2421 0
-2416 2421 0
-158 -2416 0
-159 2422 0
-2417 2422 0
-159 -2417 2423 0
-2418 2423 0
-159 -2418 2424 0
-2419 2424 0
-159 -2419 2425 0
-2420 2425 0
-159 -2420 2426 0
-2421 2426 0
-159 -2421 0
-160 2427 0
-2422 2427 0
-160 -2422 2428 0
-2423 2428 0
-160 -2423 2429 0
-2424 2429 0
-160 -2424 2430 0
-2425 2430 0
-160 -2425 2431 0
-2426 2431 0
-160 -2426 0
-161 2432 0
-2427 2432 0
-161 -2427 2433 0
-2428 2433 0
-161 -2428 2434 0
-2429 2434 0
-161 -2429 2435 0
-2430 2435 0
-161 -2430 2436 0
-2431 2436 0
-161 -2431 0
-162 -2436 0
164 2437 0
-2438 0
-2439 0
-2440 0
-2441 0
-2442 0
-2443 0
-2444 0
-2445 0
-2446 0
-2447 0
165 2448 0
-2437 2448 0
165 -2437 2449 0
-2438 2449 0
165 -2438 2450 0
-2439 2450 0
165 -2439 2451 0
-2440 2451 0
165 -2440 2452 0
-2441 2452 0
165 -2441 2453 0
-2442 2453 0
165 -2442 2454 0
-2443 2454 0
165 -2443 2455 0
-2444 2455 0
165 -2444 2456 0
-2445 2456 0
165 -2445 2457 0
-2446 2457 0
165 -2446 2458 0
-2447 2458 0
165 -2447 0
166 2459 0
-2448 2459 0
166 -2448 2460 0
-2449 2460 0
166 -2449 2461 0
-2450 2461 0
166 -2450 2462 0
-2451 2462 0
166 -2451 2463 0
-2452 2463 0
166 -2452 2464 0
-2453 2464 0
166 -2453 2465 0
-2454 2465 0
166 -2454 2466 0
-2455 2466 0
166 -2455 2467 0
-2456 2467 0
166 -2456 2468 0
-2457 2468 0
166 -2457 2469 0
-2458 2469 0
166 -2458 0
167 2470 0
-2459 2470 0
167 -2459 2471 0
-2460 2471 0
167 -2460 2472 0
-2461 2472 0
167 -2461 2473 0
-2462 2473 0
167 -2462 2474 0
-2463 2474 0
167 -2463 2475 0
-2464 2475 0
167 -2464 2476 0
-2465 2476 0
167 -2465 2477 0
-2466 2477 0
167 -2466 2478 0
-2467 2478 0
167 -2467 2479 0
-2468 2479 0
167 -2468 2480 0
-2469 2480 0
167 -2469 0
168 2481 0
-2470 2481 0
168 -2470 2482 0
-2471 2482 0
168 -2471 2483 0
-2472 2483 0
168 -2472 2484 0
-2473 2484 0
168 -2473 2485 0
-2474 2485 0
168 -2474 2486 0
-2475 2486 0
168 -2475 2487 0
-2476 2487 0
168 -2476 2488 0
-2477 2488 0
168 -2477 2489 0
-2478 2489 0
168 -2478 2490 0
-2479 2490 0
168 -2479 2491 0
-2480 2491 0
168 -2480 0
169 2492 0
-2481 2492 0
169 -2481 2493 0
-2482 2493 0
169 -2482 2494 0
-2483 2494 0
169 -2483 2495 0
-2484 2495 0
169 -2484 2496 0
-2485 2496 0
169 -2485 2497 0
-2486 2497 0
169 -2486 2498 0
-2487 2498 0
169 -2487 2499 0
-2488 2499 0
169 -2488 2500 0
-2489 2500 0
169 -2489 2501 0
-2490 2501 0
169 -2490 2502 0
-2491 2502 0
169 -2491 0
170 2503 0
-2492 2503 0
170 -2492 2504 0
-2493 2504 0
170 -2493 2505 0
-2494 2505 0
170 -2494 2506 0
-2495 2506 0
170 -2495 2507 0
-2496 2507 0
170 -2496 2508 0
-2497 2508 0
170 -2497 2509 0
-2498 2509 0
170 -2498 2510 0
-2499 2510 0
170 -2499 2511 0
-2500 2511 0
170 -2500 2512 0
-2501 2512 0
170 -2501 2513 0
-2502 2513 0
170 -2502 0
171 2514 0
-2503 2514 0
171 -2503 2515 0
-2504 2515 0
171 -2504 2516 0
-2505 2516 0
171 -2505 2517 0
-2506 2517 0
171 -2506 2518 0
-2507 2518 0
171 -2507 2519 0
-2508 2519 0
171 -2508 2520 0
-2509 2520 0
171 -2509 2521 0
-2510 2521 0
171 -2510 2522 0
-2511 2522 0
171 -2511 2523 0
-2512 2523 0
171 -2512 2524 0
-2513 2524 0
171 -2513 0
173 2525 0
-2514 2525 0
173 -2514 2526 0
-2515 2526 0
173 -2515 2527 0
-2516 2527 0
173 -2516 2528 0
-2517 2528 0
173 -2517 2529 0
-2518 2529 0
173 -2518 2530 0
-2519 2530 0
173 -2519 2531 0
-2520 2531 0
173 -2520 2532 0
-2521 2532 0
173 -2521 2533 0
-2522 2533 0
173 -2522 2534 0
-2523 2534 0
173 -2523 2535 0
-2524 2535 0
173 -2524 0
174 2536 0
-2525 2536 0
174 -2525 2537 0
-2526 2537 0
174 -2526 2538 0
-2527 2538 0
174 -2527 2539 0
-2528 2539 0
174 -2528 2540 0
-2529 2540 0
174 -2529 2541 0
-2530 2541 0
174 -2530 2542 0
-2531 2542 0
174 -2531 2543 0
-2532 2543 0
174 -2532 2544 0
-2533 2544 0
174 -2533 2545 0
-2534 2545 0
174 -2534 2546 0
-2535 2546 0
174 -2535 0
175 2547 0
-2536 2547 0
175 -2536 2548 0
-2537 2548 0
175 -2537 2549 0
-2538 2549 0
175 -2538 2550 0
-2539 2550 0
175 -2539 2551 0
-2540 2551 0
175 -2540 2552 0
-2541 2552 0
175 -2541 2553 0
-2542 2553 0
175 -2542 2554 0
-2543 2554 0
175 -2543 2555 0
-2544 2555 0
175 -2544 2556 0
-2545 2556 0
175 -2545 2557 0
-2546 2557 0
175 -2546 0
176 2558 0
-2547 2558 0
176 -2547 2559 0
-2548 2559 0
176 -2548 2560 0
-2549 2560 0
176 -2549 2561 0
-2550 2561 0
176 -2550 2562 0
-2551 2562 0
176 -2551 2563 0
-2552 2563 0
176 -2552 2564 0
-2553 2564 0
176 -2553 2565 0
-2554 2565 0
176 -2554 2566 0
-2555 2566 0
176 -2555 2567 0
-2556 2567 0
176 -2556 2568 0
-2557 2568 0
176 -2557 0
177 2569 0
-2558 2569 0
177 -2558 2570 0
-2559 2570 0
177 -2559 2571 0
-2560 2571 0
177 -2560 2572 0
-2561 2572 0
177 -2561 2573 0
-2562 2573 0
177 -2562 2574 0
-2563 2574 0
177 -2563 2575 0
-2564 2575 0
177 -2564 2576 0
-2565 2576 0
177 -2565 2577 0
-2566 2577 0
177 -2566 2578 0
-2567 2578 0
177 -2567 2579 0
-2568 2579 0
177 -2568 0
178 2580 0
-2569 2580 0
178 -2569 2581 0
-2570 2581 0
178 -2570 2582 0
-2571 2582 0
178 -2571 2583 0
-2572 2583 0
178 -2572 2584 0
-2573 2584 0
178 -2573 2585 0
-2574 2585 0
178 -2574 2586 0
-2575 2586 0
178 -2575 2587 0
-2576 2587 0
178 -2576 2588 0
-2577 2588 0
178 -2577 2589 0
-2578 2589 0
178 -2578 2590 0
-2579 2590 0
178 -2579 0
179 2591 0
-2580 2591 0
179 -2580 2592 0
-2581 2592 0
179 -2581 2593 0
-2582 2593 0
179 -2582 2594 0
-2583 2594 0
179 -2583 2595 0
-2584 2595 0
179 -2584 2596 0
-2585 2596 0
179 -2585 2597 0
-2586 2597 0
179 -2586 2598 0
-2587 2598 0
179 -2587 2599 0
-2588 2599 0
179 -2588 2600 0
-2589 2600 0
179 -2589 2601 0
-2590 2601 0
179 -2590 0
180 -2601 0
-164 2602 0
-2603 0
-2604 0
-2605 0
-2606 0
-165 2607 0
-2602 2607 0
-165 -2602 2608 0
-2603 2608 0
-165 -2603 2609 0
-2604 2609 0
-165 -2604 2610 0
-2605 2610 0
-165 -2605 2611 0
-2606 2611 0
-165 -2606 0
-166 2612 0
-2607 2612 0
-166 -2607 2613 0
-2608 2613 0
-166 -2608 2614 0
-2609 2614 0
-166 -2609 2615 0
-2610 2615 0
-166 -2610 2616 0
-2611 2616 0
-166 -2611 0
-167 2617 0
-2612 2617 0
-167 -2612 2618 0
-2613 2618 0
-167 -2613 2619 0
-2614 2619 0
-167 -2614 2620 0
-2615 2620 0
-167 -2615 2621 0
-2616 2621 0
-167 -2616 0
-168 2622 0
-2617 2622 0
-168 -2617 2623 0
-2618 2623 0
-168 -2618 2624 0
-2619 2624 0
-168 -2619 2625 0
-2620 2625 0
-168 -2620 2626 0
-2621 2626 0
-168 -2621 0
-169 2627 0
-2622 2627 0
-169 -2622 2628 0
-2623 2628 0
-169 -2623 2629 0
-2624 2629 0
-169 -2624 2630 0
-2625 2630 0
-169 -2625 2631 0
-2626 2631 0
-169 -2626 0
-170 2632 0
-2627 2632 0
-170 -2627 2633 0
-2628 2633 0
-170 -2628 2634 0
-2629 2634 0
-170 -2629 2635 0
-2630 2635 0
-170 -2630 2636 0
-2631 2636 0
-170 -2631 0
-171 2637 0
-2632 2637 0
-171 -2632 2638 0
-2633 2638 0
-171 -2633 2639 0
-2634 2639 0
-171 -2634 2640 0
-2635 2640 0
-171 -2635 2641 0
-2636 2641 0
-171 -2636 0
-173 2642 0
-2637 2642 0
-173 -2637 2643 0
-2638 2643 0
-173 -2638 2644 0
-2639 2644 0
-173 -2639 2645 0
-2640 2645 0
-173 -2640 2646 0
-2641 2646 0
-173 -2641 0
-174 2647 0
-2642 2647 0
-174 -2642 2648 0
-2643 2648 0
-174 -2643 2649 0
-2644 2649 0
-174 -2644 2650 0
-2645 2650 0
-174 -2645 2651 0
-2646 2651 0
-174 -2646 0
-175 2652 0
-2647 2652 0
-175 -2647 2653 0
-2648 2653 0
-175 -2648 2654 0
-2649 2654 0
-175 -2649 2655 0
-2650 2655 0
-175 -2650 2656 0
-2651 2656 0
-175 -2651 0
-176 2657 0
-2652 2657 0
-176 -2652 2658 0
-2653 2658 0
-176 -2653 2659 0
-2654 2659 0
-176 -2654 2660 0
-2655 2660 0
-176 -2655 2661 0
-2656 2661 0
-176 -2656 0
-177 2662 0
-2657 2662 0
-177 -2657 2663 0
-2658 2663 0
-177 -2658 2664 0
-2659 2664 0
-177 -2659 2665 0
-2660 2665 0
-177 -2660 2666 0
-2661 2666 0
-177 -2661 0
-178 2667 0
-2662 2667 0
-178 -2662 2668 0
-2663 2668 0
-178 -2663 2669 0
-2664 2669 0
-178 -2664 2670 0
-2665 2670 0
-178 -2665 2671 0
-2666 2671 0
-178 -2666 0
-179 2672 0
-2667 2672 0
-179 -2667 2673 0
-2668 2673 0
-179 -2668 2674 0
-2669 2674 0
-179 -2669 2675 0
-2670 2675 0
-179 -2670 2676 0
-2671 2676 0
-179 -2671 0
-180 -2676 0
182 2677 0
-2678 0
-2679 0
-2680 0
-2681 0
-2682 0
-2683 0
-2684 0
-2685 0
-2686 0
-2687 0
183 2688 0
-2677 2688 0
183 -2677 2689 0
-2678 2689 0
183 -2678 2690 0
-2679 2690 0
183 -2679 2691 0
-2680 2691 0
183 -2680 2692 0
-2681 2692 0
183 -2681 2693 0
-2682 2693 0
183 -2682 2694 0
-2683 2694 0
183 -2683 2695 0
-2684 2695 0
183 -2684 2696 0
-2685 2696 0
183 -2685 2697 0
-2686 2697 0
183 -2686 2698 0
-2687 2698 0
183 -2687 0
184 2699 0
-2688 2699 0
184 -2688 2700 0
-2689 2700 0
184 -2689 2701 0
-2690 2701 0
184 -2690 2702 0
-2691 2702 0
184 -2691 2703 0
-2692 2703 0
184 -2692 2704 0
-2693 2704 0
184 -2693 2705 0
-2694 2705 0
184 -2694 2706 0
-2695 2706 0
184 -2695 2707 0
-2696 2707 0
184 -2696 2708 0
-2697 2708 0
184 -2697 2709 0
-2698 2709 0
184 -2698 0
185 2710 0
-2699 2710 0
185 -2699 2711 0
-2700 2711 0
185 -2700 2712 0
-2701 2712 0
185 -2701 2713 0
-2702 2713 0
185 -2702 2714 0
-2703 2714 0
185 -2703 2715 0
-2704 2715 0
185 -2704 2716 0
-2705 2716 0
185 -2705 2717 0
-2706 2717 0
185 -2706 2718 0
-2707 2718 0
185 -2707 2719 0
-2708 2719 0
185 -2708 2720 0
-2709 2720 0
185 -2709 0
186 2721 0
-2710 2721 0
186 -2710 2722 0
-2711 2722 0
186 -2711 2723 0
-2712 2723 0
186 -2712 2724 0
-2713 2724 0
186 -2713 2725 0
-2714 2725 0
186 -2714 2726 0
-2715 2726 0
186 -2715 2727 0
-2716 2727 0
186 -2716 2728 0
-2717 2728 0
186 -2717 2729 0
-2718 2729 0
186 -2718 2730 0
-2719 2730 0
186 -2719 2731 0
-2720 2731 0
186 -2720 0
187 2732 0
-2721 2732 0
187 -2721 2733 0
-2722 2733 0
187 -2722 2734 0
-2723 2734 0
187 -2723 2735 0
-2724 2735 0
187 -2724 2736 0
-2725 2736 0
187 -2725 2737 0
-2726 2737 0
187 -2726 2738 0
-2727 2738 0
187 -2727 2739 0
-2728 2739 0
187 -2728 2740 0
-2729 2740 0
187 -2729 2741 0
-2730 2741 0
187 -2730 2742 0
-2731 2742 0
187 -2731 0
188 2743 0
-2732 2743 0
188 -2732 2744 0
-2733 2744 0
188 -2733 2745 0
-2734 2745 0
188 -2734 2746 0
-2735 2746 0
188 -2735 2747 0
-2736 2747 0
188 -2736 2748 0
-2737 2748 0
188 -2737 2749 0
-2738 2749 0
188 -2738 2750 0
-2739 2750 0
188 -2739 2751 0
-2740 2751 0
188 -2740 2752 0
-2741 2752 0
188 -2741 2753 0
-2742 2753 0
188 -2742 0
189 2754 0
-2743 2754 0
189 -2743 2755 0
-2744 2755 0
189 -2744 2756 0
-2745 2756 0
189 -2745 2757 0
-2746 2757 0
189 -2746 2758 0
-2747 2758 0
189 -2747 2759 0
-2748 2759 0
189 -2748 2760 0
-2749 2760 0
189 -2749 2761 0
-2750 2761 0
189 -2750 2762 0
-2751 2762 0
189 -2751 2763 0
-2752 2763 0
189 -2752 2764 0
-2753 2764 0
189 -2753 0
190 2765 0
-2754 2765 0
190 -2754 2766 0
-2755 2766 0
190 -2755 2767 0
-2756 2767 0
190 -2756 2768 0
-2757 2768 0
190 -2757 2769 0
-2758 2769 0
190 -2758 2770 0
-2759 2770 0
190 -2759 2771 0
-2760 2771 0
190 -2760 2772 0
-2761 2772 0
190 -2761 2773 0
-2762 2773 0
190 -2762 2774 0
-2763 2774 0
190 -2763 2775 0
-2764 2775 0
190 -2764 0
192 2776 0
-2765 2776 0
192 -2765 2777 0
-2766 2777 0
192 -2766 2778 0
-2767 2778 0
192 -2767 2779 0
-2768 2779 0
192 -2768 2780 0
-2769 2780 0
192 -2769 2781 0
-2770 2781 0
192 -2770 2782 0
-2771 2782 0
192 -2771 2783 0
-2772 2783 0
192 -2772 2784 0
-2773 2784 0
192 -2773 2785 0
-2774 2785 0
192 -2774 2786 0
-2775 2786 0
192 -2775 0
193 2787 0
-2776 2787 0
193 -2776 2788 0
-2777 2788 0
193 -2777 2789 0
-2778 2789 0
193 -2778 2790 0
-2779 2790 0
193 -2779 2791 0
-2780 2791 0
193 -2780 2792 0
-2781 2792 0
193 -2781 2793 0
-2782 2793 0
193 -2782 2794 0
-2783 2794 0
193 -2783 2795 0
-2784 2795 0
193 -2784 2796 0
-2785 2796 0
193 -2785 2797 0
-2786 2797 0
193 -2786 0
194 2798 0
-2787 2798 0
194 -2787 2799 0
-2788 2799 0
194 -2788 2800 0
-2789 2800 0
194 -2789 2801 0
-2790 2801 0
194 -2790 2802 0
-2791 2802 0
194 -2791 2803 0
-2792 2803 0
194 -2792 2804 0
-2793 2804 0
194 -2793 2805 0
-2794 2805 0
194 -2794 2806 0
-2795 2806 0
194 -2795 2807 0
-2796 2807 0
194 -2796 2808 0
-2797 2808 0
194 -2797 0
195 2809 0
-2798 2809 0
195 -2798 2810 0
-2799 2810 0
195 -2799 2811 0
-2800 2811 0
195 -2800 2812 0
-2801 2812 0
195 -2801 2813 0
-2802 2813 0
195 -2802 2814 0
-2803 2814 0
195 -2803 2815 0
-2804 2815 0
195 -2804 2816 0
-2805 2816 0
195 -2805 2817 0
-2806 2817 0
195 -2806 2818 0
-2807 2818 0
195 -2807 2819 0
-2808 2819 0
195 -2808 0
196 2820 0
-2809 2820 0
196 -2809 2821 0
-2810 2821 0
196 -2810 2822 0
-2811 2822 0
196 -2811 2823 0
-2812 2823 0
196 -2812 2824 0
-2813 2824 0
196 -2813 2825 0
-2814 2825 0
196 -2814 2826 0
-2815 2826 0
196 -2815 2827 0
-2816 2827 0
196 -2816 2828 0
-2817 2828 0
196 -2817 2829 0
-2818 2829 0
196 -2818 2830 0
-2819 2830 0
196 -2819 0
197 2831 0
-2820 2831 0
197 -2820 2832 0
-2821 2832 0
197 -2821 2833 0
-2822 2833 0
197 -2822 2834 0
-2823 2834 0
197 -2823 2835 0
-2824 2835 0
197 -2824 2836 0
-2825 2836 0
197 -2825 2837 0
-2826 2837 0
197 -2826 2838 0
-2827 2838 0
197 -2827 2839 0
-2828 2839 0
197 -2828 2840 0
-2829 2840 0
197 -2829 2841 0
-2830 2841 0
197 -2830 0
198 -2841 0
-182 2842 0
-2843 0
-2844 0
-2845 0
-2846 0
-183 2847 0
-2842 2847 0
-183 -2842 2848 0
-2843 2848 0
-183 -2843 2849 0
-2844 2849 0
-183 -2844 2850 0
-2845 2850 0
-183 -2845 2851 0
-2846 2851 0
-183 -2846 0
-184 2852 0
-2847 2852 0
-184 -2847 2853 0
-2848 2853 0
-184 -2848 2854 0
-2849 2854 0
-184 -2849 2855 0
-2850 2855 0
-184 -2850 2856 0
-2851 2856 0
-184 -2851 0
-185 2857 0
-2852 2857 0
-185 -2852 2858 0
-2853 2858 0
-185 -2853 2859 0
-2854 2859 0
-185 -2854 2860 0
-2855 2860 0
-185 -2855 2861 0
-2856 2861 0
-185 -2856 0
-186 2862 0
-2857 2862 0
-186 -2857 2863 0
-2858 2863 0
-186 -2858 2864 0
-2859 2864 0
-186 -2859 2865 0
-2860 2865 0
-186 -2860 2866 0
-2861 2866 0
-186 -2861 0
-187 2867 0
-2862 2867 0
-187 -2862 2868 0
-2863 2868 0
-187 -2863 2869 0
-2864 2869 0
-187 -2864 2870 0
-2865 2870 0
-187 -2865 2871 0
-2866 2871 0
-187 -2866 0
-188 2872 0
-2867 2872 0
-188 -2867 2873 0
-2868 2873 0
-188 -2868 2874 0
-2869 2874 0
-188 -2869 2875 0
-2870 2875 0
-188 -2870 2876 0
-2871 2876 0
-188 -2871 0
-189 2877 0
-2872 2877 0
-189 -2872 2878 0
-2873 2878 0
-189 -2873 2879 0
-2874 2879 0
-189 -2874 2880 0
-2875 2880 0
-189 -2875 2881 0
-2876 2881 0
-189 -2876 0
-190 2882 0
-2877 2882 0
-190 -2877 2883 0
-2878 2883 0
-190 -2878 2884 0
-2879 2884 0
-190 -2879 2885 0
-2880 2885 0
-190 -2880 2886 0
-2881 2886 0
-190 -2881 0
-192 2887 0
-2882 2887 0
-192 -2882 2888 0
-2883 2888 0
-192 -2883 2889 0
-2884 2889 0
-192 -2884 2890 0
-2885 2890 0
-192 -2885 2891 0
-2886 2891 0
-192 -2886 0
-193 2892 0
-2887 2892 0
-193 -2887 2893 0
-2888 2893 0
-193 -2888 2894 0
-2889 2894 0
-193 -2889 2895 0
-2890 2895 0
-193 -2890 2896 0
-2891 2896 0
-193 -2891 0
-194 2897 0
-2892 2897 0
-194 -2892 2898 0
-2893 2898 0
-194 -2893 2899 0
-2894 2899 0
-194 -2894 2900 0
-2895 2900 0
-194 -2895 2901 0
-2896 2901 0
-194 -2896 0
-195 2902 0
-2897 2902 0
-195 -2897 2903 0
-2898 2903 0
-195 -2898 2904 0
-2899 2904 0
-195 -2899 2905 0
-2900 2905 0
-195 -2900 2906 0
-2901 2906 0
-195 -2901 0
-196 2907 0
-2902 2907 0
-196 -2902 2908 0
-2903 2908 0
-196 -2903 2909 0
-2904 2909 0
-196 -2904 2910 0
-2905 2910 0
-196 -2905 2911 0
-2906 2911 0
-196 -2906 0
-197 2912 0
-2907 2912 0
-197 -2907 2913 0
-2908 2913 0
-197 -2908 2914 0
-2909 2914 0
-197 -2909 2915 0
-2910 2915 0
-197 -2910 2916 0
-2911 2916 0
-197 -2911 0
-198 -2916 0
200 2917 0
-2918 0
-2919 0
-2920 0
-2921 0
-2922 0
-2923 0
-2924 0
-2925 0
-2926 0
-2927 0
201 2928 0
-2917 2928 0
201 -2917 2929 0
-2918 2929 0
201 -2918 2930 0
-2919 2930 0
201 -2919 2931 0
-2920 2931 0
201 -2920 2932 0
-2921 2932 0
201 -2921 2933 0
-2922 2933 0
201 -2922 2934 0
-2923 2934 0
201 -2923 2935 0
-2924 2935 0
201 -2924 2936 0
-2925 2936 0
201 -2925 2937 0
-2926 2937 0
201 -2926 2938 0
-2927 2938 0
201 -2927 0
202 2939 0
-2928 2939 0
202 -2928 2940 0
-2929 2940 0
202 -2929 2941 0
-2930 2941 0
202 -2930 2942 0
-2931 2942 0
202 -2931 2943 0
-2932 2943 0
202 -2932 2944 0
-2933 2944 0
202 -2933 2945 0
-2934 2945 0
202 -2934 2946 0
-2935 2946 0
202 -2935 2947 0
-2936 2947 0
202 -2936 2948 0
-2937 2948 0
202 -2937 2949 0
-2938 2949 0
202 -2938 0
203 2950 0
-2939 2950 0
203 -2939 2951 0
-2940 2951 0
203 -2940 2952 0
-2941 2952 0
203 -2941 2953 0
-2942 2953 0
203 -2942 2954 0
-2943 2954 0
203 -2943 2955 0
-2944 2955 0
203 -2944 2956 0
-2945 2956 0
203 -2945 2957 0
-2946 2957 0
203 -2946 2958 0
-2947 2958 0
203 -2947 2959 0
-2948 2959 0
203 -2948 2960 0
-2949 2960 0
203 -2949 0
204 2961 0
-2950 2961 0
204 -2950 2962 0
-2951 2962 0
204 -2951 2963 0
-2952 2963 0
204 -2952 2964 0
-2953 2964 0
204 -2953 2965 0
-2954 2965 0
204 -2954 2966 0
-2955 2966 0
204 -2955 2967 0
-2956 2967 0
204 -2956 2968 0
-2957 2968 0
204 -2957 2969 0
-2958 2969 0
204 -2958 2970 0
-2959 2970 0
204 -2959 2971 0
-2960 2971 0
204 -2960 0
205 2972 0
-2961 2972 0
205 -2961 2973 0
-2962 2973 0
205 -2962 2974 0
-2963 2974 0
205 -2963 2975 0
-2964 2975 0
205 -2964 2976 0
-2965 2976 0
205 -2965 2977 0
-2966 2977 0
205 -2966 2978 0
-2967 2978 0
205 -2967 2979 0
-2968 2979 0
205 -2968 2980 0
-2969 2980 0
205 -2969 2981 0
-2970 2981 0
205 -2970 2982 0
-2971 2982 0
205 -2971 0
206 2983 0
-2972 2983 0
206 -2972 2984 0
-2973 2984 0
206 -2973 2985 0
-2974 2985 0
206 -2974 2986 0
-2975 2986 0
206 -2975 2987 0
-2976 2987 0
206 -2976 2988 0
-2977 2988 0
206 -2977 2989 0
-2978 2989 0
206 -2978 2990 0
-2979 2990 0
206 -2979 2991 0
-2980 2991 0
206 -2980 2992 0
-2981 2992 0
206 -2981 2993 0
-2982 2993 0
206 -2982 0
207 2994 0
-2983 2994 0
207 -2983 2995 0
-2984 2995 0
207 -2984 2996 0
-2985 2996 0
207 -2985 2997 0
-2986 2997 0
207 -2986 2998 0
-2987 2998 0
207 -2987 2999 0
-2988 2999 0
207 -2988 3000 0
-2989 3000 0
207 -2989 3001 0
-2990 3001 0
207 -2990 3002 0
-2991 3002 0
207 -2991 3003 0
-2992 3003 0
207 -2992 3004 0
-2993 3004 0
207 -2993 0
208 3005 0
-2994 3005 0
208 -2994 3006 0
-2995 3006 0
208 -2995 3007 0
-2996 3007 0
208 -2996 3008 0
-2997 3008 0
208 -2997 3009 0
-2998 3009 0
208 -2998 3010 0
-2999 3010 0
208 -2999 3011 0
-3000 3011 0
208 -3000 3012 0
-3001 3012 0
208 -3001 3013 0
-3002 3013 0
208 -3002 3014 0
-3003 3014 0
208 -3003 3015 0
-3004 3015 0
208 -3004 0
209 3016 0
-3005 3016 0
209 -3005 3017 0
-3006 3017 0
209 -3006 3018 0
-3007 3018 0
209 -3007 3019 0
-3008 3019 0
209 -3008 3020 0
-3009 3020 0
209 -3009 3021 0
-3010 3021 0
209 -3010 3022 0
-3011 3022 0
209 -3011 3023 0
-3012 3023 0
209 -3012 3024 0
-3013 3024 0
209 -3013 3025 0
-3014 3025 0
209 -3014 3026 0
-3015 3026 0
209 -3015 0
211 3027 0
-3016 3027 0
211 -3016 3028 0
-3017 3028 0
211 -3017 3029 0
-3018 3029 0
211 -3018 3030 0
-3019 3030 0
211 -3019 3031 0
-3020 3031 0
211 -3020 3032 0
-3021 3032 0
211 -3021 3033 0
-3022 3033 0
211 -3022 3034 0
-3023 3034 0
211 -3023 3035 0
-3024 3035 0
211 -3024 3036 0
-3025 3036 0
211 -3025 3037 0
-3026 3037 0
211 -3026 0
212 3038 0
-3027 3038 0
212 -3027 3039 0
-3028 3039 0
212 -3028 3040 0
-3029 3040 0
212 -3029 3041 0
-3030 3041 0
212 -3030 3042 0
-3031 3042 0
212 -3031 3043 0
-3032 3043 0
212 -3032 3044 0
-3033 3044 0
212 -3033 3045 0
-3034 3045 0
212 -3034 3046 0
-3035 3046 0
212 -3035 3047 0
-3036 3047 0
212 -3036 3048 0
-3037 3048 0
212 -3037 0
213 3049 0
-3038 3049 0
213 -3038 3050 0
-3039 3050 0
213 -3039 3051 0
-3040 3051 0
213 -3040 3052 0
-3041 3052 0
213 -3041 3053 0
-3042 3053 0
213 -3042 3054 0
-3043 3054 0
213 -3043 3055 0
-3044 3055 0
213 -3044 3056 0
-3045 3056 0
213 -3045 3057 0
-3046 3057 0
213 -3046 3058 0
-3047 3058 0
213 -3047 3059 0
-3048 3059 0
213 -3048 0
214 3060 0
-3049 3060 0
214 -3049 3061 0
-3050 3061 0
214 -3050 3062 0
-3051 3062 0
214 -3051 3063 0
-3052 3063 0
214 -3052 3064 0
-3053 3064 0
214 -3053 3065 0
-3054 3065 0
214 -3054 3066 0
-3055 3066 0
214 -3055 3067 0
-3056 3067 0
214 -3056 3068 0
-3057 3068 0
214 -3057 3069 0
-3058 3069 0
214 -3058 3070 0
-3059 3070 0
214 -3059 0
215 3071 0
-3060 3071 0
215 -3060 3072 0
-3061 3072 0
215 -3061 3073 0
-3062 3073 0
215 -3062 3074 0
-3063 3074 0
215 -3063 3075 0
-3064 3075 0
215 -3064 3076 0
-3065 3076 0
215 -3065 3077 0
-3066 3077 0
215 -3066 3078 0
-3067 3078 0
215 -3067 3079 0
-3068 3079 0
215 -3068 3080 0
-3069 3080 0
215 -3069 3081 0
-3070 3081 0
215 -3070 0
216 -3081 0
-200 3082 0
-3083 0
-3084 0
-3085 0
-3086 0
-201 3087 0
-3082 3087 0
-201 -3082 3088 0
-3083 3088 0
-201 -3083 3089 0
-3084 3089 0
-201 -3084 3090 0
-3085 3090 0
-201 -3085 3091 0
-3086 3091 0
-201 -3086 0
-202 3092 0
-3087 3092 0
-202 -3087 3093 0
-3088 3093 0
-202 -3088 3094 0
-3089 3094 0
-202 -3089 3095 0
-3090 3095 0
-202 -3090 3096 0
-3091 3096 0
-202 -3091 0
-203 3097 0
-3092 3097 0
-203 -3092 3098 0
-3093 3098 0
-203 -3093 3099 0
-3094 3099 0
-203 -3094 3100 0
-3095 3100 0
-203 -3095 3101 0
-3096 3101 0
-203 -3096 0
-204 3102 0
-3097 3102 0
-204 -3097 3103 0
-3098 3103 0
-204 -3098 3104 0
-3099 3104 0
-204 -3099 3105 0
-3100 3105 0
-204 -3100 3106 0
-3101 3106 0
-204 -3101 0
-205 3107 0
-3102 3107 0
-205 -3102 3108 0
-3103 3108 0
-205 -3103 3109 0
-3104 3109 0
-205 -3104 3110 0
-3105 3110 0
-205 -3105 3111 0
-3106 3111 0
-205 -3106 0
-206 3112 0
-3107 3112 0
-206 -3107 3113 0
-3108 3113 0
-206 -3108 3114 0
-3109 3114 0
-206 -3109 3115 0
-3110 3115 0
-206 -3110 3116 0
-3111 3116 0
-206 -3111 0
-207 3117 0
-3112 3117 0
-207 -3112 3118 0
-3113 3118 0
-207 -3113 3119 0
-3114 3119 0
-207 -3114 3120 0
-3115 3120 0
-207 -3115 3121 0
-3116 3121 0
-207 -3116 0
-208 3122 0
-3117 3122 0
-208 -3117 3123 0
-3118 3123 0
-208 -3118 3124 0
-3119 3124 0
-208 -3119 3125 0
-3120 3125 0
-208 -3120 3126 0
-3121 3126 0
-208 -3121 0
-209 3127 0
-3122 3127 0
-209 -3122 3128 0
-3123 3128 0
-209 -3123 3129 0
-3124 3129 0
-209 -3124 3130 0
-3125 3130 0
-209 -3125 3131 0
-3126 3131 0
-209 -3126 0
-211 3132 0
-3127 3132 0
-211 -3127 3133 0
-3128 3133 0
-211 -3128 3134 0
-3129 3134 0
-211 -3129 3135 0
-3130 3135 0
-211 -3130 3136 0
-3131 3136 0
-211 -3131 0
-212 3137 0
-3132 3137 0
-212 -3132 3138 0
-3133 3138 0
-212 -3133 3139 0
-3134 3139 0
-212 -3134 3140 0
-3135 3140 0
-212 -3135 3141 0
-3136 3141 0
-212 -3136 0
-213 3142 0
-3137 3142 0
-213 -3137 3143 0
-3138 3143 0
-213 -3138 3144 0
-3139 3144 0
-213 -3139 3145 0
-3140 3145 0
-213 -3140 3146 0
-3141 3146 0
-213 -3141 0
-214 3147 0
-3142 3147 0
-214 -3142 3148 0
-3143 3148 0
-214 -3143 3149 0
-3144 3149 0
-214 -3144 3150 0
-3145 3150 0
-214 -3145 3151 0
-3146 3151 0
-214 -3146 0
-215 3152 0
-3147 3152 0
-215 -3147 3153 0
-3148 3153 0
-215 -3148 3154 0
-3149 3154 0
-215 -3149 3155 0
-3150 3155 0
-215 -3150 3156 0
-3151 3156 0
-215 -3151 0
-216 -3156 0
218 3157 0
-3158 0
-3159 0
-3160 0
-3161 0
-3162 0
-3163 0
-3164 0
-3165 0
-3166 0
-3167 0
219 3168 0
-3157 3168 0
219 -3157 3169 0
-3158 3169 0
219 -3158 3170 0
-3159 3170 0
219 -3159 3171 0
-3160 3171 0
219 -3160 3172 0
-3161 3172 0
219 -3161 3173 0
-3162 3173 0
219 -3162 3174 0
-3163 3174 0
219 -3163 3175 0
-3164 3175 0
219 -3164 3176 0
-3165 3176 0
219 -3165 3177 0
-3166 3177 0
219 -3166 3178 0
-3167 3178 0
219 -3167 0
220 3179 0
-3168 3179 0
220 -3168 3180 0
-3169 3180 0
220 -3169 3181 0
-3170 3181 0
220 -3170 3182 0
-3171 3182 0
220 -3171 3183 0
-3172 3183 0
220 -3172 3184 0
-3173 3184 0
220 -3173 3185 0
-3174 3185 0
220 -3174 3186 0
-3175 3186 0
220 -3175 3187 0
-3176 3187 0
220 -3176 3188 0
-3177 3188 0
220 -3177 3189 0
-3178 3189 0
220 -3178 0
221 3190 0
-3179 3190 0
221 -3179 3191 0
-3180 3191 0
221 -3180 3192 0
-3181 3192 0
221 -3181 3193 0
-3182 3193 0
221 -3182 3194 0
-3183 3194 0
221 -3183 3195 0
-3184 3195 0
221 -3184 3196 0
-3185 3196 0
221 -3185 3197 0
-3186 3197 0
221 -3186 3198 0
-3187 3198 0
221 -3187 3199 0
-3188 3199 0
221 -3188 3200 0
-3189 3200 0
221 -3189 0
222 3201 0
-3190 3201 0
222 -3190 3202 0
-3191 3202 0
222 -3191 3203 0
-3192 3203 0
222 -3192 3204 0
-3193 3204 0
222 -3193 3205 0
-3194 3205 0
222 -3194 3206 0
-3195 3206 0
222 -3195 3207 0
-3196 3207 0
222 -3196 3208 0
-3197 3208 0
222 -3197 3209 0
-3198 3209 0
222 -3198 3210 0
-3199 3210 0
222 -3199 3211 0
-3200 3211 0
222 -3200 0
223 3212 0
-3201 3212 0
223 -3201 3213 0
-3202 3213 0
223 -3202 3214 0
-3203 3214 0
223 -3203 3215 0
-3204 3215 0
223 -3204 3216 0
-3205 3216 0
223 -3205 3217 0
-3206 3217 0
223 -3206 3218 0
-3207 3218 0
223 -3207 3219 0
-3208 3219 0
223 -3208 3220 0
-3209 3220 0
223 -3209 3221 0
-3210 3221 0
223 -3210 3222 0
-3211 3222 0
223 -3211 0
224 3223 0
-3212 3223 0
224 -3212 3224 0
-3213 3224 0
224 -3213 3225 0
-3214 3225 0
224 -3214 3226 0
-3215 3226 0
224 -3215 3227 0
-3216 3227 0
224 -3216 3228 0
-3217 3228 0
224 -3217 3229 0
-3218 3229 0
224 -3218 3230 0
-3219 3230 0
224 -3219 3231 0
-3220 3231 0
224 -3220 3232 0
-3221 3232 0
224 -3221 3233 0
-3222 3233 0
224 -3222 0
225 3234 0
-3223 3234 0
225 -3223 3235 0
-3224 3235 0
225 -3224 3236 0
-3225 3236 0
225 -3225 3237 0
-3226 3237 0
225 -3226 3238 0
-3227 3238 0
225 -3227 3239 0
-3228 3239 0
225 -3228 3240 0
-3229 3240 0
225 -3229 3241 0
-3230 3241 0
225 -3230 3242 0
-3231 3242 0
225 -3231 3243 0
-3232 3243 0
225 -3232 3244 0
-3233 3244 0
225 -3233 0
226 3245 0
-3234 3245 0
226 -3234 3246 0
-3235 3246 0
226 -3235 3247 0
-3236 3247 0
226 -3236 3248 0
-3237 3248 0
226 -3237 3249 0
-3238 3249 0
226 -3238 3250 0
-3239 3250 0
226 -3239 3251 0
-3240 3251 0
226 -3240 3252 0
-3241 3252 0
226 -3241 3253 0
-3242 3253 0
226 -3242 3254 0
-3243 3254 0
226 -3243 3255 0
-3244 3255 0
226 -3244 0
227 3256 0
-3245 3256 0
227 -3245 3257 0
-3246 3257 0
227 -3246 3258 0
-3247 3258 0
227 -3247 3259 0
-3248 3259 0
227 -3248 3260 0
-3249 3260 0
227 -3249 3261 0
-3250 3261 0
227 -3250 3262 0
-3251 3262 0
227 -3251 3263 0
-3252 3263 0
227 -3252 3264 0
-3253 3264 0
227 -3253 3265 0
-3254 3265 0
227 -3254 3266 0
-3255 3266 0
227 -3255 0
228 3267 0
-3256 3267 0
228 -3256 3268 0
-3257 3268 0
228 -3257 3269 0
-3258 3269 0
228 -3258 3270 0
-3259 3270 0
228 -3259 3271 0
-3260 3271 0
228 -3260 3272 0
-3261 3272 0
228 -3261 3273 0
-3262 3273 0
228 -3262 3274 0
-3263 3274 0
228 -3263 3275 0
-3264 3275 0
228 -3264 3276 0
-3265 3276 0
228 -3265 3277 0
-3266 3277 0
228 -3266 0
230 3278 0
-3267 3278 0
230 -3267 3279 0
-3268 3279 0
230 -3268 3280 0
-3269 3280 0
230 -3269 3281 0
-3270 3281 0
230 -3270 3282 0
-3271 3282 0
230 -3271 3283 0
-3272 3283 0
230 -3272 3284 0
-3273 3284 0
230 -3273 3285 0
-3274 3285 0
230 -3274 3286 0
-3275 3286 0
230 -3275 3287 0
-3276 3287 0
230 -3276 3288 0
-3277 3288 0
230 -3277 0
231 3289 0
-3278 3289 0
231 -3278 3290 0
-3279 3290 0
231 -3279 3291 0
-3280 3291 0
231 -3280 3292 0
-3281 3292 0
231 -3281 3293 0
-3282 3293 0
231 -3282 3294 0
-3283 3294 0
231 -3283 3295 0
-3284 3295 0
231 -3284 3296 0
-3285 3296 0
231 -3285 3297 0
-3286 3297 0
231 -3286 3298 0
-3287 3298 0
231 -3287 3299 0
-3288 3299 0
231 -3288 0
232 3300 0
-3289 3300 0
232 -3289 3301 0
-3290 3301 0
232 -3290 3302 0
-3291 3302 0
232 -3291 3303 0
-3292 3303 0
232 -3292 3304 0
-3293 3304 0
232 -3293 3305 0
-3294 3305 0
232 -3294 3306 0
-3295 3306 0
232 -3295 3307 0
-3296 3307 0
232 -3296 3308 0
-3297 3308 0
232 -3297 3309 0
-3298 3309 0
232 -3298 3310 0
-3299 3310 0
232 -3299 0
233 3311 0
-3300 3311 0
233 -3300 3312 0
-3301 3312 0
233 -3301 3313 0
-3302 3313 0
233 -3302 3314 0
-3303 3314 0
233 -3303 3315 0
-3304 3315 0
233 -3304 3316 0
-3305 3316 0
233 -3305 3317 0
-3306 3317 0
233 -3306 3318 0
-3307 3318 0
233 -3307 3319 0
-3308 3319 0
233 -3308 3320 0
-3309 3320 0
233 -3309 3321 0
-3310 3321 0
233 -3310 0
234 -3321 0
-218 3322 0
-3323 0
-3324 0
-3325 0
-3326 0
-219 3327 0
-3322 3327 0
-219 -3322 3328 0
-3323 3328 0
-219 -3323 3329 0
-3324 3329 0
-219 -3324 3330 0
-3325 3330 0
-219 -3325 3331 0
-3326 3331 0
-219 -3326 0
-220 3332 0
-3327 3332 0
-220 -3327 3333 0
-3328 3333 0
-220 -3328 3334 0
-3329 3334 0
-220 -3329 3335 0
-3330 3335 0
-220 -3330 3336 0
-3331 3336 0
-220 -3331 0
-221 3337 0
-3332 3337 0
-221 -3332 3338 0
-3333 3338 0
-221 -3333 3339 0
-3334 3339 0
-221 -3334 3340 0
-3335 3340 0
-221 -3335 3341 0
-3336 3341 0
-221 -3336 0
-222 3342 0
-3337 3342 0
-222 -3337 3343 0
-3338 3343 0
-222 -3338 3344 0
-3339 3344 0
-222 -3339 3345 0
-3340 3345 0
-222 -3340 3346 0
-3341 3346 0
-222 -3341 0
-223 3347 0
-3342 3347 0
-223 -3342 3348 0
-3343 3348 0
-223 -3343 3349 0
-3344 3349 0
-223 -3344 3350 0
-3345 3350 0
-223 -3345 3351 0
-3346 3351 0
-223 -3346 0
-224 3352 0
-3347 3352 0
-224 -3347 3353 0
-3348 3353 0
-224 -3348 3354 0
-3349 3354 0
-224 -3349 3355 0
-3350 3355 0
-224 -3350 3356 0
-3351 3356 0
-224 -3351 0
-225 3357 0
-3352 3357 0
-225 -3352 3358 0
-3353 3358 0
-225 -3353 3359 0
-3354 3359 0
-225 -3354 3360 0
-3355 3360 0
-225 -3355 3361 0
-3356 3361 0
-225 -3356 0
-226 3362 0
-3357 3362 0
-226 -3357 3363 0
-3358 3363 0
-226 -3358 3364 0
-3359 3364 0
-226 -3359 3365 0
-3360 3365 0
-226 -3360 3366 0
-3361 3366 0
-226 -3361 0
-227 3367 0
-3362 3367 0
-227 -3362 3368 0
-3363 3368 0
-227 -3363 3369 0
-3364 3369 0
-227 -3364 3370 0
-3365 3370 0
-227 -3365 3371 0
-3366 3371 0
-227 -3366 0
-228 3372 0
-3367 3372 0
-228 -3367 3373 0
-3368 3373 0
-228 -3368 3374 0
-3369 3374 0
-228 -3369 3375 0
-3370 3375 0
-228 -3370 3376 0
-3371 3376 0
-228 -3371 0
-230 3377 0
-3372 3377 0
-230 -3372 3378 0
-3373 3378 0
-230 -3373 3379 0
-3374 3379 0
-230 -3374 3380 0
-3375 3380 0
-230 -3375 3381 0
-3376 3381 0
-230 -3376 0
-231 3382 0
-3377 3382 0
-231 -3377 3383 0
-3378 3383 0
-231 -3378 3384 0
-3379 3384 0
-231 -3379 3385 0
-3380 3385 0
-231 -3380 3386 0
-3381 3386 0
-231 -3381 0
-232 3387 0
-3382 3387 0
-232 -3382 3388 0
-3383 3388 0
-232 -3383 3389 0
-3384 3389 0
-232 -3384 3390 0
-3385 3390 0
-232 -3385 3391 0
-3386 3391 0
-232 -3386 0
-233 3392 0
-3387 3392 0
-233 -3387 3393 0
-3388 3393 0
-233 -3388 3394 0
-3389 3394 0
-233 -3389 3395 0
-3390 3395 0
-233 -3390 3396 0
-3391 3396 0
-233 -3391 0
-234 -3396 0
235 3397 0
-3398 0
-3399 0
-3400 0
-3401 0
-3402 0
-3403 0
-3404 0
-3405 0
-3406 0
-3407 0
236 3408 0
-3397 3408 0
236 -3397 3409 0
-3398 3409 0
236 -3398 3410 0
-3399 3410 0
236 -3399 3411 0
-3400 3411 0
236 -3400 3412 0
-3401 3412 0
236 -3401 3413 0
-3402 3413 0
236 -3402 3414 0
-3403 3414 0
236 -3403 3415 0
-3404 3415 0
236 -3404 3416 0
-3405 3416 0
236 -3405 3417 0
-3406 3417 0
236 -3406 3418 0
-3407 3418 0
236 -3407 0
237 3419 0
-3408 3419 0
237 -3408 3420 0
-3409 3420 0
237 -3409 3421 0
-3410 3421 0
237 -3410 3422 0
-3411 3422 0
237 -3411 3423 0
-3412 3423 0
237 -3412 3424 0
-3413 3424 0
237 -3413 3425 0
-3414 3425 0
237 -3414 3426 0
-3415 3426 0
237 -3415 3427 0
-3416 3427 0
237 -3416 3428 0
-3417 3428 0
237 -3417 3429 0
-3418 3429 0
237 -3418 0
238 3430 0
-3419 3430 0
238 -3419 3431 0
-3420 3431 0
238 -3420 3432 0
-3421 3432 0
238 -3421 3433 0
-3422 3433 0
238 -3422 3434 0
-3423 3434 0
238 -3423 3435 0
-3424 3435 0
238 -3424 3436 0
-3425 3436 0
238 -3425 3437 0
-3426 3437 0
238 -3426 3438 0
-3427 3438 0
238 -3427 3439 0
-3428 3439 0
238 -3428 3440 0
-3429 3440 0
238 -3429 0
239 3441 0
-3430 3441 0
239 -3430 3442 0
-3431 3442 0
239 -3431 3443 0
-3432 3443 0
239 -3432 3444 0
-3433 3444 0
239 -3433 3445 0
-3434 3445 0
239 -3434 3446 0
-3435 3446 0
239 -3435 3447 0
-3436 3447 0
239 -3436 3448 0
-3437 3448 0
239 -3437 3449 0
-3438 3449 0
239 -3438 3450 0
-3439 3450 0
239 -3439 3451 0
-3440 3451 0
239 -3440 0
240 3452 0
-3441 3452 0
240 -3441 3453 0
-3442 3453 0
240 -3442 3454 0
-3443 3454 0
240 -3443 3455 0
-3444 3455 0
240 -3444 3456 0
-3445 3456 0
240 -3445 3457 0
-3446 3457 0
240 -3446 3458 0
-3447 3458 0
240 -3447 3459 0
-3448 3459 0
240 -3448 3460 0
-3449 3460 0
240 -3449 3461 0
-3450 3461 0
240 -3450 3462 0
-3451 3462 0
240 -3451 0
241 3463 0
-3452 3463 0
241 -3452 3464 0
-3453 3464 0
241 -3453 3465 0
-3454 3465 0
241 -3454 3466 0
-3455 3466 0
241 -3455 3467 0
-3456 3467 0
241 -3456 3468 0
-3457 3468 0
241 -3457 3469 0
-3458 3469 0
241 -3458 3470 0
-3459 3470 0
241 -3459 3471 0
-3460 3471 0
241 -3460 3472 0
-3461 3472 0
241 -3461 3473 0
-3462 3473 0
241 -3462 0
242 3474 0
-3463 3474 0
242 -3463 3475 0
-3464 3475 0
242 -3464 3476 0
-3465 3476 0
242 -3465 3477 0
-3466 3477 0
242 -3466 3478 0
-3467 3478 0
242 -3467 3479 0
-3468 3479 0
242 -3468 3480 0
-3469 3480 0
242 -3469 3481 0
-3470 3481 0
242 -3470 3482 0
-3471 3482 0
242 -3471 3483 0
-3472 3483 0
242 -3472 3484 0
-3473 3484 0
242 -3473 0
243 3485 0
-3474 3485 0
243 -3474 3486 0
-3475 3486 0
243 -3475 3487 0
-3476 3487 0
243 -3476 3488 0
-3477 3488 0
243 -3477 3489 0
-3478 3489 0
243 -3478 3490 0
-3479 3490 0
243 -3479 3491 0
-3480 3491 0
243 -3480 3492 0
-3481 3492 0
243 -3481 3493 0
-3482 3493 0
243 -3482 3494 0
-3483 3494 0
243 -3483 3495 0
-3484 3495 0
243 -3484 0
244 3496 0
-3485 3496 0
244 -3485 3497 0
-3486 3497 0
244 -3486 3498 0
-3487 3498 0
244 -3487 3499 0
-3488 3499 0
244 -3488 3500 0
-3489 3500 0
244 -3489 3501 0
-3490 3501 0
244 -3490 3502 0
-3491 3502 0
244 -3491 3503 0
-3492 3503 0
244 -3492 3504 0
-3493 3504 0
244 -3493 3505 0
-3494 3505 0
244 -3494 3506 0
-3495 3506 0
244 -3495 0
245 3507 0
-3496 3507 0
245 -3496 3508 0
-3497 3508 0
245 -3497 3509 0
-3498 3509 0
245 -3498 3510 0
-3499 3510 0
245 -3499 3511 0
-3500 3511 0
245 -3500 3512 0
-3501 3512 0
245 -3501 3513 0
-3502 3513 0
245 -3502 3514 0
-3503 3514 0
245 -3503 3515 0
-3504 3515 0
245 -3504 3516 0
-3505 3516 0
245 -3505 3517 0
-3506 3517 0
245 -3506 0
246 3518 0
-3507 3518 0
246 -3507 3519 0
-3508 3519 0
246 -3508 3520 0
-3509 3520 0
246 -3509 3521 0
-3510 3521 0
246 -3510 3522 0
-3511 3522 0
246 -3511 3523 0
-3512 3523 0
246 -3512 3524 0
-3513 3524 0
246 -3513 3525 0
-3514 3525 0
246 -3514 3526 0
-3515 3526 0
246 -3515 3527 0
-3516 3527 0
246 -3516 3528 0
-3517 3528 0
246 -3517 0
247 3529 0
-3518 3529 0
247 -3518 3530 0
-3519 3530 0
247 -3519 3531 0
-3520 3531 0
247 -3520 3532 0
-3521 3532 0
247 -3521 3533 0
-3522 3533 0
247 -3522 3534 0
-3523 3534 0
247 -3523 3535 0
-3524 3535 0
247 -3524 3536 0
-3525 3536 0
247 -3525 3537 0
-3526 3537 0
247 -3526 3538 0
-3527 3538 0
247 -3527 3539 0
-3528 3539 0
247 -3528 0
249 3540 0
-3529 3540 0
249 -3529 3541 0
-3530 3541 0
249 -3530 3542 0
-3531 3542 0
249 -3531 3543 0
-3532 3543 0
249 -3532 3544 0
-3533 3544 0
249 -3533 3545 0
-3534 3545 0
249 -3534 3546 0
-3535 3546 0
249 -3535 3547 0
-3536 3547 0
249 -3536 3548 0
-3537 3548 0
249 -3537 3549 0
-3538 3549 0
249 -3538 3550 0
-3539 3550 0
249 -3539 0
250 3551 0
-3540 3551 0
250 -3540 3552 0
-3541 3552 0
250 -3541 3553 0
-3542 3553 0
250 -3542 3554 0
-3543 3554 0
250 -3543 3555 0
-3544 3555 0
250 -3544 3556 0
-3545 3556 0
250 -3545 3557 0
-3546 3557 0
250 -3546 3558 0
-3547 3558 0
250 -3547 3559 0
-3548 3559 0
250 -3548 3560 0
-3549 3560 0
250 -3549 3561 0
-3550 3561 0
250 -3550 0
251 3562 0
-3551 3562 0
251 -3551 3563 0
-3552 3563 0
251 -3552 3564 0
-3553 3564 0
251 -3553 3565 0
-3554 3565 0
251 -3554 3566 0
-3555 3566 0
251 -3555 3567 0
-3556 3567 0
251 -3556 3568 0
-3557 3568 0
251 -3557 3569 0
-3558 3569 0
251 -3558 3570 0
-3559 3570 0
251 -3559 3571 0
-3560 3571 0
251 -3560 3572 0
-3561 3572 0
251 -3561 0
252 -3572 0
-235 3573 0
-3574 0
-3575 0
-3576 0
-3577 0
-3578 0
-236 3579 0
-3573 3579 0
-236 -3573 3580 0
-3574 3580 0
-236 -3574 3581 0
-3575 3581 0
-236 -3575 3582 0
-3576 3582 0
-236 -3576 3583 0
-3577 3583 0
-236 -3577 3584 0
-3578 3584 0
-236 -3578 0
-237 3585 0
-3579 3585 0
-237 -3579 3586 0
-3580 3586 0
-237 -3580 3587 0
-3581 3587 0
-237 -3581 3588 0
-3582 3588 0
-237 -3582 3589 0
-3583 3589 0
-237 -3583 3590 0
-3584 3590 0
-237 -3584 0
-238 3591 0
-3585 3591 0
-238 -3585 3592 0
-3586 3592 0
-238 -3586 3593 0
-3587 3593 0
-238 -3587 3594 0
-3588 3594 0
-238 -3588 3595 0
-3589 3595 0
-238 -3589 3596 0
-3590 3596 0
-238 -3590 0
-239 3597 0
-3591 3597 0
-239 -3591 3598 0
-3592 3598 0
-239 -3592 3599 0
-3593 3599 0
-239 -3593 3600 0
-3594 3600 0
-239 -3594 3601 0
-3595 3601 0
-239 -3595 3602 0
-3596 3602 0
-239 -3596 0
-240 3603 0
-3597 3603 0
-240 -3597 3604 0
-3598 3604 0
-240 -3598 3605 0
-3599 3605 0
-240 -3599 3606 0
-3600 3606 0
-240 -3600 3607 0
-3601 3607 0
-240 -3601 3608 0
-3602 3608 0
-240 -3602 0
-241 3609 0
-3603 3609 0
-241 -3603 3610 0
-3604 3610 0
-241 -3604 3611 0
-3605 3611 0
-241 -3605 3612 0
-3606 3612 0
-241 -3606 3613 0
-3607 3613 0
-241 -3607 3614 0
-3608 3614 0
-241 -3608 0
-242 3615 0
-3609 3615 0
-242 -3609 3616 0
-3610 3616 0
-242 -3610 3617 0
-3611 3617 0
-242 -3611 3618 0
-3612 3618 0
-242 -3612 3619 0
-3613 3619 0
-242 -3613 3620 0
-3614 3620 0
-242 -3614 0
-243 3621 0
-3615 3621 0
-243 -3615 3622 0
-3616 3622 0
-243 -3616 3623 0
-3617 3623 0
-243 -3617 3624 0
-3618 3624 0
-243 -3618 3625 0
-3619 3625 0
-243 -3619 3626 0
-3620 3626 0
-243 -3620 0
-244 3627 0
-3621 3627 0
-244 -3621 3628 0
-3622 3628 0
-244 -3622 3629 0
-3623 3629 0
-244 -3623 3630 0
-3624 3630 0
-244 -3624 3631 0
-3625 3631 0
-244 -3625 3632 0
-3626 3632 0
-244 -3626 0
-245 3633 0
-3627 3633 0
-245 -3627 3634 0
-3628 3634 0
-245 -3628 3635 0
-3629 3635 0
-245 -3629 3636 0
-3630 3636 0
-245 -3630 3637 0
-3631 3637 0
-245 -3631 3638 0
-3632 3638 0
-245 -3632 0
-246 3639 0
-3633 3639 0
-246 -3633 3640 0
-3634 3640 0
-246 -3634 3641 0
-3635 3641 0
-246 -3635 3642 0
-3636 3642 0
-246 -3636 3643 0
-3637 3643 0
-246 -3637 3644 0
-3638 3644 0
-246 -3638 0
-247 3645 0
-3639 3645 0
-247 -3639 3646 0
-3640 3646 0
-247 -3640 3647 0
-3641 3647 0
-247 -3641 3648 0
-3642 3648 0
-247 -3642 3649 0
-3643 3649 0
-247 -3643 3650 0
-3644 3650 0
-247 -3644 0
-249 3651 0
-3645 3651 0
-249 -3645 3652 0
-3646 3652 0
-249 -3646 3653 0
-3647 3653 0
-249 -3647 3654 0
-3648 3654 0
-249 -3648 3655 0
-3649 3655 0
-249 -3649 3656 0
-3650 3656 0
-249 -3650 0
-250 3657 0
-3651 3657 0
-250 -3651 3658 0
-3652 3658 0
-250 -3652 3659 0
-3653 3659 0
-250 -3653 3660 0
-3654 3660 0
-250 -3654 3661 0
-3655 3661 0
-250 -3655 3662 0
-3656 3662 0
-250 -3656 0
-251 3663 0
-3657 3663 0
-251 -3657 3664 0
-3658 3664 0
-251 -3658 3665 0
-3659 3665 0
-251 -3659 3666 0
-3660 3666 0
-251 -3660 3667 0
-3661 3667 0
-251 -3661 3668 0
-3662 3668 0
-251 -3662 0
-252 -3668 0
253 3669 0
-3670 0
-3671 0
-3672 0
-3673 0
-3674 0
-3675 0
-3676 0
-3677 0
-3678 0
-3679 0
254 3680 0
-3669 3680 0
254 -3669 3681 0
-3670 3681 0
254 -3670 3682 0
-3671 3682 0
254 -3671 3683 0
-3672 3683 0
254 -3672 3684 0
-3673 3684 0
254 -3673 3685 0
-3674 3685 0
254 -3674 3686 0
-3675 3686 0
254 -3675 3687 0
-3676 3687 0
254 -3676 3688 0
-3677 3688 0
254 -3677 3689 0
-3678 3689 0
254 -3678 3690 0
-3679 3690 0
254 -3679 0
255 3691 0
-3680 3691 0
255 -3680 3692 0
-3681 3692 0
255 -3681 3693 0
-3682 3693 0
255 -3682 3694 0
-3683 3694 0
255 -3683 3695 0
-3684 3695 0
255 -3684 3696 0
-3685 3696 0
255 -3685 3697 0
-3686 3697 0
255 -3686 3698 0
-3687 3698 0
255 -3687 3699 0
-3688 3699 0
255 -3688 3700 0
-3689 3700 0
255 -3689 3701 0
-3690 3701 0
255 -3690 0
256 3702 0
-3691 3702 0
256 -3691 3703 0
-3692 3703 0
256 -3692 3704 0
-3693 3704 0
256 -3693 3705 0
-3694 3705 0
256 -3694 3706 0
-3695 3706 0
256 -3695 3707 0
-3696 3707 0
256 -3696 3708 0
-3697 3708 0
256 -3697 3709 0
-3698 3709 0
256 -3698 3710 0
-3699 3710 0
256 -3699 3711 0
-3700 3711 0
256 -3700 3712 0
-3701 3712 0
256 -3701 0
257 3713 0
-3702 3713 0
257 -3702 3714 0
-3703 3714 0
257 -3703 3715 0
-3704 3715 0
257 -3704 3716 0
-3705 3716 0
257 -3705 3717 0
-3706 3717 0
257 -3706 3718 0
-3707 3718 0
257 -3707 3719 0
-3708 3719 0
257 -3708 3720 0
-3709 3720 0
257 -3709 3721 0
-3710 3721 0
257 -3710 3722 0
-3711 3722 0
257 -3711 3723 0
-3712 3723 0
257 -3712 0
258 3724 0
-3713 3724 0
258 -3713 3725 0
-3714 3725 0
258 -3714 3726 0
-3715 3726 0
258 -3715 3727 0
-3716 3727 0
258 -3716 3728 0
-3717 3728 0
258 -3717 3729 0
-3718 3729 0
258 -3718 3730 0
-3719 3730 0
258 -3719 3731 0
-3720 3731 0
258 -3720 3732 0
-3721 3732 0
258 -3721 3733 0
-3722 3733 0
258 -3722 3734 0
-3723 3734 0
258 -3723 0
259 3735 0
-3724 3735 0
259 -3724 3736 0
-3725 3736 0
259 -3725 3737 0
-3726 3737 0
259 -3726 3738 0
-3727 3738 0
259 -3727 3739 0
-3728 3739 0
259 -3728 3740 0
-3729 3740 0
259 -3729 3741 0
-3730 3741 0
259 -3730 3742 0
-3731 3742 0
259 -3731 3743 0
-3732 3743 0
259 -3732 3744 0
-3733 3744 0
259 -3733 3745 0
-3734 3745 0
259 -3734 0
260 3746 0
-3735 3746 0
260 -3735 3747 0
-3736 3747 0
260 -3736 3748 0
-3737 3748 0
260 -3737 3749 0
-3738 3749 0
260 -3738 3750 0
-3739 3750 0
260 -3739 3751 0
-3740 3751 0
260 -3740 3752 0
-3741 3752 0
260 -3741 3753 0
-3742 3753 0
260 -3742 3754 0
-3743 3754 0
260 -3743 3755 0
-3744 3755 0
260 -3744 3756 0
-3745 3756 0
260 -3745 0
261 3757 0
-3746 3757 0
261 -3746 3758 0
-3747 3758 0
261 -3747 3759 0
-3748 3759 0
261 -3748 3760 0
-3749 3760 0
261 -3749 3761 0
-3750 3761 0
261 -3750 3762 0
-3751 3762 0
261 -3751 3763 0
-3752 3763 0
261 -3752 3764 0
-3753 3764 0
261 -3753 3765 0
-3754 3765 0
261 -3754 3766 0
-3755 3766 0
261 -3755 3767 0
-3756 3767 0
261 -3756 0
262 3768 0
-3757 3768 0
262 -3757 3769 0
-3758 3769 0
262 -3758 3770 0
-3759 3770 0
262 -3759 3771 0
-3760 3771 0
262 -3760 3772 0
-3761 3772 0
262 -3761 3773 0
-3762 3773 0
262 -3762 3774 0
-3763 3774 0
262 -3763 3775 0
-3764 3775 0
262 -3764 3776 0
-3765 3776 0
262 -3765 3777 0
-3766 3777 0
262 -3766 3778 0
-3767 3778 0
262 -3767 0
263 3779 0
-3768 3779 0
263 -3768 3780 0
-3769 3780 0
263 -3769 3781 0
-3770 3781 0
263 -3770 3782 0
-3771 3782 0
263 -3771 3783 0
-3772 3783 0
263 -3772 3784 0
-3773 3784 0
263 -3773 3785 0
-3774 3785 0
263 -3774 3786 0
-3775 3786 0
263 -3775 3787 0
-3776 3787 0
263 -3776 3788 0
-3777 3788 0
263 -3777 3789 0
-3778 3789 0
263 -3778 0
264 3790 0
-3779 3790 0
264 -3779 3791 0
-3780 3791 0
264 -3780 3792 0
-3781 3792 0
264 -3781 3793 0
-3782 3793 0
264 -3782 3794 0
-3783 3794 0
264 -3783 3795 0
-3784 3795 0
264 -3784 3796 0
-3785 3796 0
264 -3785 3797 0
-3786 3797 0
264 -3786 3798 0
-3787 3798 0
264 -3787 3799 0
-3788 3799 0
264 -3788 3800 0
-3789 3800 0
264 -3789 0
265 3801 0
-3790 3801 0
265 -3790 3802 0
-3791 3802 0
265 -3791 3803 0
-3792 3803 0
265 -3792 3804 0
-3793 3804 0
265 -3793 3805 0
-3794 3805 0
265 -3794 3806 0
-3795 3806 0
265 -3795 3807 0
-3796 3807 0
265 -3796 3808 0
-3797 3808 0
265 -3797 3809 0
-3798 3809 0
265 -3798 3810 0
-3799 3810 0
265 -3799 3811 0
-3800 3811 0
265 -3800 0
266 3812 0
-3801 3812 0
266 -3801 3813 0
-3802 3813 0
266 -3802 3814 0
-3803 3814 0
266 -3803 3815 0
-3804 3815 0
266 -3804 3816 0
-3805 3816 0
266 -3805 3817 0
-3806 3817 0
266 -3806 3818 0
-3807 3818 0
266 -3807 3819 0
-3808 3819 0
266 -3808 3820 0
-3809 3820 0
266 -3809 3821 0
-3810 3821 0
266 -3810 3822 0
-3811 3822 0
266 -3811 0
268 3823 0
-3812 3823 0
268 -3812 3824 0
-3813 3824 0
268 -3813 3825 0
-3814 3825 0
268 -3814 3826 0
-3815 3826 0
268 -3815 3827 0
-3816 3827 0
268 -3816 3828 0
-3817 3828 0
268 -3817 3829 0
-3818 3829 0
268 -3818 3830 0
-3819 3830 0
268 -3819 3831 0
-3820 3831 0
268 -3820 3832 0
-3821 3832 0
268 -3821 3833 0
-3822 3833 0
268 -3822 0
269 3834 0
-3823 3834 0
269 -3823 3835 0
-3824 3835 0
269 -3824 3836 0
-3825 3836 0
269 -3825 3837 0
-3826 3837 0
269 -3826 3838 0
-3827 3838 0
269 -3827 3839 0
-3828 3839 0
269 -3828 3840 0
-3829 3840 0
269 -3829 3841 0
-3830 3841 0
269 -3830 3842 0
-3831 3842 0
269 -3831 3843 0
-3832 3843 0
269 -3832 3844 0
-3833 3844 0
269 -3833 0
270 -3844 0
-253 3845 0
-3846 0
-3847 0
-3848 0
-3849 0
-3850 0
-254 3851 0
-3845 3851 0
-254 -3845 3852 0
-3846 3852 0
-254 -3846 3853 0
-3847 3853 0
-254 -3847 3854 0
-3848 3854 0
-254 -3848 3855 0
-3849 3855 0
-254 -3849 3856 0
-3850 3856 0
-254 -3850 0
-255 3857 0
-3851 3857 0
-255 -3851 3858 0
-3852 3858 0
-255 -3852 3859 0
-3853 3859 0
-255 -3853 3860 0
-3854 3860 0
-255 -3854 3861 0
-3855 3861 0
-255 -3855 3862 0
-3856 3862 0
-255 -3856 0
-256 3863 0
-3857 3863 0
-256 -3857 3864 0
-3858 3864 0
-256 -3858 3865 0
-3859 3865 0
-256 -3859 3866 0
-3860 3866 0
-256 -3860 3867 0
-3861 3867 0
-256 -3861 3868 0
-3862 3868 0
-256 -3862 0
-257 3869 0
-3863 3869 0
-257 -3863 3870 0
-3864 3870 0
-257 -3864 3871 0
-3865 3871 0
-257 -3865 3872 0
-3866 3872 0
-257 -3866 3873 0
-3867 3873 0
-257 -3867 3874 0
-3868 3874 0
-257 -3868 0
-258 3875 0
-3869 3875 0
-258 -3869 3876 0
-3870 3876 0
-258 -3870 3877 0
-3871 3877 0
-258 -3871 3878 0
-3872 3878 0
-258 -3872 3879 0
-3873 3879 0
-258 -3873 3880 0
-3874 3880 0
-258 -3874 0
-259 3881 0
-3875 3881 0
-259 -3875 3882 0
-3876 3882 0
-259 -3876 3883 0
-3877 3883 0
-259 -3877 3884 0
-3878 3884 0
-259 -3878 3885 0
-3879 3885 0
-259 -3879 3886 0
-3880 3886 0
-259 -3880 0
-260 3887 0
-3881 3887 0
-260 -3881 3888 0
-3882 3888 0
-260 -3882 3889 0
-3883 3889 0
-260 -3883 3890 0
-3884 3890 0
-260 -3884 3891 0
-3885 3891 0
-260 -3885 3892 0
-3886 3892 0
-260 -3886 0
-261 3893 0
-3887 3893 0
-261 -3887 3894 0
-3888 3894 0
-261 -3888 3895 0
-3889 3895 0
-261 -3889 3896 0
-3890 3896 0
-261 -3890 3897 0
-3891 3897 0
-261 -3891 3898 0
-3892 3898 0
-261 -3892 0
-262 3899 0
-3893 3899 0
-262 -3893 3900 0
-3894 3900 0
-262 -3894 3901 0
-3895 3901 0
-262 -3895 3902 0
-3896 3902 0
-262 -3896 3903 0
-3897 3903 0
-262 -3897 3904 0
-3898 3904 0
-262 -3898 0
-263 3905 0
-3899 3905 0
-263 -3899 3906 0
-3900 3906 0
-263 -3900 3907 0
-3901 3907 0
-263 -3901 3908 0
-3902 3908 0
-263 -3902 3909 0
-3903 3909 0
-263 -3903 3910 0
-3904 3910 0
-263 -3904 0
-264 3911 0
-3905 3911 0
-264 -3905 3912 0
-3906 3912 0
-264 -3906 3913 0
-3907 3913 0
-264 -3907 3914 0
-3908 3914 0
-264 -3908 3915 0
-3909 3915 0
-264 -3909 3916 0
-3910 3916 0
-264 -3910 0
-265 3917 0
-3911 3917 0
-265 -3911 3918 0
-3912 3918 0
-265 -3912 3919 0
-3913 3919 0
-265 -3913 3920 0
-3914 3920 0
-265 -3914 3921 0
-3915 3921 0
-265 -3915 3922 0
-3916 3922 0
-265 -3916 0
-266 3923 0
-3917 3923 0
-266 -3917 3924 0
-3918 3924 0
-266 -3918 3925 0
-3919 3925 0
-266 -3919 3926 0
-3920 3926 0
-266 -3920 3927 0
-3921 3927 0
-266 -3921 3928 0
-3922 3928 0
-266 -3922 0
-268 3929 0
-3923 3929 0
-268 -3923 3930 0
-3924 3930 0
-268 -3924 3931 0
-3925 3931 0
-268 -3925 3932 0
-3926 3932 0
-268 -3926 3933 0
-3927 3933 0
-268 -3927 3934 0
-3928 3934 0
-268 -3928 0
-269 3935 0
-3929 3935 0
-269 -3929 3936 0
-3930 3936 0
-269 -3930 3937 0
-3931 3937 0
-269 -3931 3938 0
-3932 3938 0
-269 -3932 3939 0
-3933 3939 0
-269 -3933 3940 0
-3934 3940 0
-269 -3934 0
-270 -3940 0
271 3941 0
-3942 0
-3943 0
-3944 0
-3945 0
-3946 0
-3947 0
-3948 0
-3949 0
-3950 0
-3951 0
272 3952 0
-3941 3952 0
272 -3941 3953 0
-3942 3953 0
272 -3942 3954 0
-3943 3954 0
272 -3943 3955 0
-3944 3955 0
272 -3944 3956 0
-3945 3956 0
272 -3945 3957 0
-3946 3957 0
272 -3946 3958 0
-3947 3958 0
272 -3947 3959 0
-3948 3959 0
272 -3948 3960 0
-3949 3960 0
272 -3949 3961 0
-3950 3961 0
272 -3950 3962 0
-3951 3962 0
272 -3951 0
273 3963 0
-3952 3963 0
273 -3952 3964 0
-3953 3964 0
273 -3953 3965 0
-3954 3965 0
273 -3954 3966 0
-3955 3966 0
273 -3955 3967 0
-3956 3967 0
273 -3956 3968 0
-3957 3968 0
273 -3957 3969 0
-3958 3969 0
273 -3958 3970 0
-3959 3970 0
273 -3959 3971 0
-3960 3971 0
273 -3960 3972 0
-3961 3972 0
273 -3961 3973 0
-3962 3973 0
273 -3962 0
274 3974 0
-3963 3974 0
274 -3963 3975 0
-3964 3975 0
274 -3964 3976 0
-3965 3976 0
274 -3965 3977 0
-3966 3977 0
274 -3966 3978 0
-3967 3978 0
274 -3967 3979 0
-3968 3979 0
274 -3968 3980 0
-3969 3980 0
274 -3969 3981 0
-3970 3981 0
274 -3970 3982 0
-3971 3982 0
274 -3971 3983 0
-3972 3983 0
274 -3972 3984 0
-3973 3984 0
274 -3973 0
275 3985 0
-3974 3985 0
275 -3974 3986 0
-3975 3986 0
275 -3975 3987 0
-3976 3987 0
275 -3976 3988 0
-3977 3988 0
275 -3977 3989 0
-3978 3989 0
275 -3978 3990 0
-3979 3990 0
275 -3979 3991 0
-3980 3991 0
275 -3980 3992 0
-3981 3992 0
275 -3981 3993 0
-3982 3993 0
275 -3982 3994 0
-3983 3994 0
275 -3983 3995 0
-3984 3995 0
275 -3984 0
276 3996 0
-3985 3996 0
276 -3985 3997 0
-3986 3997 0
276 -3986 3998 0
-3987 3998 0
276 -3987 3999 0
-3988 3999 0
276 -3988 4000 0
-3989 4000 0
276 -3989 4001 0
-3990 4001 0
276 -3990 4002 0
-3991 4002 0
276 -3991 4003 0
-3992 4003 0
276 -3992 4004 0
-3993 4004 0
276 -3993 4005 0
-3994 4005 0
276 -3994 4006 0
-3995 4006 0
276 -3995 0
277 4007 0
-3996 4007 0
277 -3996 4008 0
-3997 4008 0
277 -3997 4009 0
-3998 4009 0
277 -3998 4010 0
-3999 4010 0
277 -3999 4011 0
-4000 4011 0
277 -4000 4012 0
-4001 4012 0
277 -4001 4013 0
-4002 4013 0
277 -4002 4014 0
-4003 4014 0
277 -4003 4015 0
-4004 4015 0
277 -4004 4016 0
-4005 4016 0
277 -4005 4017 0
-4006 4017 0
277 -4006 0
278 4018 0
-4007 4018 0
278 -4007 4019 0
-4008 4019 0
278 -4008 4020 0
-4009 4020 0
278 -4009 4021 0
-4010 4021 0
278 -4010 4022 0
-4011 4022 0
278 -4011 4023 0
-4012 4023 0
278 -4012 4024 0
-4013 4024 0
278 -4013 4025 0
-4014 4025 0
278 -4014 4026 0
-4015 4026 0
278 -4015 4027 0
-4016 4027 0
278 -4016 4028 0
-4017 4028 0
278 -4017 0
279 4029 0
-4018 4029 0
279 -4018 4030 0
-4019 4030 0
279 -4019 4031 0
-4020 4031 0
279 -4020 4032 0
-4021 4032 0
279 -4021 4033 0
-4022 4033 0
279 -4022 4034 0
-4023 4034 0
279 -4023 4035 0
-4024 4035 0
279 -4024 4036 0
-4025 4036 0
279 -4025 4037 0
-4026 4037 0
279 -4026 4038 0
-4027 4038 0
279 -4027 4039 0
-4028 4039 0
279 -4028 0
280 4040 0
-4029 4040 0
280 -4029 4041 0
-4030 4041 0
280 -4030 4042 0
-4031 4042 0
280 -4031 4043 0
-4032 4043 0
280 -4032 4044 0
-4033 4044 0
280 -4033 4045 0
-4034 4045 0
280 -4034 4046 0
-4035 4046 0
280 -4035 4047 0
-4036 4047 0
280 -4036 4048 0
-4037 4048 0
280 -4037 4049 0
-4038 4049 0
280 -4038 4050 0
-4039 4050 0
280 -4039 0
281 4051 0
-4040 4051 0
281 -4040 4052 0
-4041 4052 0
281 -4041 4053 0
-4042 4053 0
281 -4042 4054 0
-4043 4054 0
281 -4043 4055 0
-4044 4055 0
281 -4044 4056 0
-4045 4056 0
281 -4045 4057 0
-4046 4057 0
281 -4046 4058 0
-4047 4058 0
281 -4047 4059 0
-4048 4059 0
281 -4048 4060 0
-4049 4060 0
281 -4049 4061 0
-4050 4061 0
281 -4050 0
282 4062 0
-4051 4062 0
282 -4051 4063 0
-4052 4063 0
282 -4052 4064 0
-4053 4064 0
282 -4053 4065 0
-4054 4065 0
282 -4054 4066 0
-4055 4066 0
282 -4055 4067 0
-4056 4067 0
282 -4056 4068 0
-4057 4068 0
282 -4057 4069 0
-4058 4069 0
282 -4058 4070 0
-4059 4070 0
282 -4059 4071 0
-4060 4071 0
282 -4060 4072 0
-4061 4072 0
282 -4061 0
283 4073 0
-4062 4073 0
283 -4062 4074 0
-4063 4074 0
283 -4063 4075 0
-4064 4075 0
283 -4064 4076 0
-4065 4076 0
283 -4065 4077 0
-4066 4077 0
283 -4066 4078 0
-4067 4078 0
283 -4067 4079 0
-4068 4079 0
283 -4068 4080 0
-4069 4080 0
283 -4069 4081 0
-4070 4081 0
283 -4070 4082 0
-4071 4082 0
283 -4071 4083 0
-4072 4083 0
283 -4072 0
284 4084 0
-4073 4084 0
284 -4073 4085 0
-4074 4085 0
284 -4074 4086 0
-4075 4086 0
284 -4075 4087 0
-4076 4087 0
284 -4076 4088 0
-4077 4088 0
284 -4077 4089 0
-4078 4089 0
284 -4078 4090 0
-4079 4090 0
284 -4079 4091 0
-4080 4091 0
284 -4080 4092 0
-4081 4092 0
284 -4081 4093 0
-4082 4093 0
284 -4082 4094 0
-4083 4094 0
284 -4083 0
285 4095 0
-4084 4095 0
285 -4084 4096 0
-4085 4096 0
285 -4085 4097 0
-4086 4097 0
285 -4086 4098 0
-4087 4098 0
285 -4087 4099 0
-4088 4099 0
285 -4088 4100 0
-4089 4100 0
285 -4089 4101 0
-4090 4101 0
285 -4090 4102 0
-4091 4102 0
285 -4091 4103 0
-4092 4103 0
285 -4092 4104 0
-4093 4104 0
285 -4093 4105 0
-4094 4105 0
285 -4094 0
287 4106 0
-4095 4106 0
287 -4095 4107 0
-4096 4107 0
287 -4096 4108 0
-4097 4108 0
287 -4097 4109 0
-4098 4109 0
287 -4098 4110 0
-4099 4110 0
287 -4099 4111 0
-4100 4111 0
287 -4100 4112 0
-4101 4112 0
287 -4101 4113 0
-4102 4113 0
287 -4102 4114 0
-4103 4114 0
287 -4103 4115 0
-4104 4115 0
287 -4104 4116 0
-4105 4116 0
287 -4105 0
288 -4116 0
-271 4117 0
-4118 0
-4119 0
-4120 0
-4121 0
-4122 0
-272 4123 0
-4117 4123 0
-272 -4117 4124 0
-4118 4124 0
-272 -4118 4125 0
-4119 4125 0
-272 -4119 4126 0
-4120 4126 0
-272 -4120 4127 0
-4121 4127 0
-272 -4121 4128 0
-4122 4128 0
-272 -4122 0
-273 4129 0
-4123 4129 0
-273 -4123 4130 0
-4124 4130 0
-273 -4124 4131 0
-4125 4131 0
-273 -4125 4132 0
-4126 4132 0
-273 -4126 4133 0
-4127 4133 0
-273 -4127 4134 0
-4128 4134 0
-273 -4128 0
-274 4135 0
-4129 4135 0
-274 -4129 4136 0
-4130 4136 0
-274 -4130 4137 0
-4131 4137 0
-274 -4131 4138 0
-4132 4138 0
-274 -4132 4139 0
-4133 4139 0
-274 -4133 4140 0
-4134 4140 0
-274 -4134 0
-275 4141 0
-4135 4141 0
-275 -4135 4142 0
-4136 4142 0
-275 -4136 4143 0
-4137 4143 0
-275 -4137 4144 0
-4138 4144 0
-275 -4138 4145 0
-4139 4145 0
-275 -4139 4146 0
-4140 4146 0
-275 -4140 0
-276 4147 0
-4141 4147 0
-276 -4141 4148 0
-4142 4148 0
-276 -4142 4149 0
-4143 4149 0
-276 -4143 4150 0
-4144 4150 0
-276 -4144 4151 0
-4145 4151 0
-276 -4145 4152 0
-4146 4152 0
-276 -4146 0
-277 4153 0
-4147 4153 0
-277 -4147 4154 0
-4148 4154 0
-277 -4148 4155 0
-4149 4155 0
-277 -4149 4156 0
-4150 4156 0
-277 -4150 4157 0
-4151 4157 0
-277 -4151 4158 0
-4152 4158 0
-277 -4152 0
-278 4159 0
-4153 4159 0
-278 -4153 4160 0
-4154 4160 0
-278 -4154 4161 0
-4155 4161 0
-278 -4155 4162 0
-4156 4162 0
-278 -4156 4163 0
-4157 4163 0
-278 -4157 4164 0
-4158 4164 0
-278 -4158 0
-279 4165 0
-4159 4165 0
-279 -4159 4166 0
-4160 4166 0
-279 -4160 4167 0
-4161 4167 0
-279 -4161 4168 0
-4162 4168 0
-279 -4162 4169 0
-4163 4169 0
-279 -4163 4170 0
-4164 4170 0
-279 -4164 0
-280 4171 0
-4165 4171 0
-280 -4165 4172 0
-4166 4172 0
-280 -4166 4173 0
-4167 4173 0
-280 -4167 4174 0
-4168 4174 0
-280 -4168 4175 0
-4169 4175 0
-280 -4169 4176 0
-4170 4176 0
-280 -4170 0
-281 4177 0
-4171 4177 0
-281 -4171 4178 0
-4172 4178 0
-281 -4172 4179 0
-4173 4179 0
-281 -4173 4180 0
-4174 4180 0
-281 -4174 4181 0
-4175 4181 0
-281 -4175 4182 0
-4176 4182 0
-281 -4176 0
-282 4183 0
-4177 4183 0
-282 -4177 4184 0
-4178 4184 0
-282 -4178 4185 0
-4179 4185 0
-282 -4179 4186 0
-4180 4186 0
-282 -4180 4187 0
-4181 4187 0
-282 -4181 4188 0
-4182 4188 0
-282 -4182 0
-283 4189 0
-4183 4189 0
-283 -4183 4190 0
-4184 4190 0
-283 -4184 4191 0
-4185 4191 0
-283 -4185 4192 0
-4186 4192 0
-283 -4186 4193 0
-4187 4193 0
-283 -4187 4194 0
-4188 4194 0
-283 -4188 0
-284 4195 0
-4189 4195 0
-284 -4189 4196 0
-4190 4196 0
-284 -4190 4197 0
-4191 4197 0
-284 -4191 4198 0
-4192 4198 0
-284 -4192 4199 0
-4193 4199 0
-284 -4193 4200 0
-4194 4200 0
-284 -4194 0
-285 4201 0
-4195 4201 0
-285 -4195 4202 0
-4196 4202 0
-285 -4196 4203 0
-4197 4203 0
-285 -4197 4204 0
-4198 4204 0
-285 -4198 4205 0
-4199 4205 0
-285 -4199 4206 0
-4200 4206 0
-285 -4200 0
-287 4207 0
-4201 4207 0
-287 -4201 4208 0
-4202 4208 0
-287 -4202 4209 0
-4203 4209 0
-287 -4203 4210 0
-4204 4210 0
-287 -4204 4211 0
-4205 4211 0
-287 -4205 4212 0
-4206 4212 0
-287 -4206 0
-288 -4212 0
289 4213 0
-4214 0
-4215 0
-4216 0
-4217 0
-4218 0
-4219 0
-4220 0
-4221 0
-4222 0
-4223 0
290 4224 0
-4213 4224 0
290 -4213 4225 0
-4214 4225 0
290 -4214 4226 0
-4215 4226 0
290 -4215 4227 0
-4216 4227 0
290 -4216 4228 0
-4217 4228 0
290 -4217 4229 0
-4218 4229 0
290 -4218 4230 0
-4219 4230 0
290 -4219 4231 0
-4220 4231 0
290 -4220 4232 0
-4221 4232 0
290 -4221 4233 0
-4222 4233 0
290 -4222 4234 0
-4223 4234 0
290 -4223 0
291 4235 0
-4224 4235 0
291 -4224 4236 0
-4225 4236 0
291 -4225 4237 0
-4226 4237 0
291 -4226 4238 0
-4227 4238 0
291 -4227 4239 0
-4228 4239 0
291 -4228 4240 0
-4229 4240 0
291 -4229 4241 0
-4230 4241 0
291 -4230 4242 0
-4231 4242 0
291 -4231 4243 0
-4232 4243 0
291 -4232 4244 0
-4233 4244 0
291 -4233 4245 0
-4234 4245 0
291 -4234 0
292 4246 0
-4235 4246 0
292 -4235 4247 0
-4236 4247 0
292 -4236 4248 0
-4237 4248 0
292 -4237 4249 0
-4238 4249 0
292 -4238 4250 0
-4239 4250 0
292 -4239 4251 0
-4240 4251 0
292 -4240 4252 0
-4241 4252 0
292 -4241 4253 0
-4242 4253 0
292 -4242 4254 0
-4243 4254 0
292 -4243 4255 0
-4244 4255 0
292 -4244 4256 0
-4245 4256 0
292 -4245 0
293 4257 0
-4246 4257 0
293 -4246 4258 0
-4247 4258 0
293 -4247 4259 0
-4248 4259 0
293 -4248 4260 0
-4249 4260 0
293 -4249 4261 0
-4250 4261 0
293 -4250 4262 0
-4251 4262 0
293 -4251 4263 0
-4252 4263 0
293 -4252 4264 0
-4253 4264 0
293 -4253 4265 0
-4254 4265 0
293 -4254 4266 0
-4255 4266 0
293 -4255 4267 0
-4256 4267 0
293 -4256 0
294 4268 0
-4257 4268 0
294 -4257 4269 0
-4258 4269 0
294 -4258 4270 0
-4259 4270 0
294 -4259 4271 0
-4260 4271 0
294 -4260 4272 0
-4261 4272 0
294 -4261 4273 0
-4262 4273 0
294 -4262 4274 0
-4263 4274 0
294 -4263 4275 0
-4264 4275 0
294 -4264 4276 0
-4265 4276 0
294 -4265 4277 0
-4266 4277 0
294 -4266 4278 0
-4267 4278 0
294 -4267 0
295 4279 0
-4268 4279 0
295 -4268 4280 0
-4269 4280 0
295 -4269 4281 0
-4270 4281 0
295 -4270 4282 0
-4271 4282 0
295 -4271 4283 0
-4272 4283 0
295 -4272 4284 0
-4273 4284 0
295 -4273 4285 0
-4274 4285 0
295 -4274 4286 0
-4275 4286 0
295 -4275 4287 0
-4276 4287 0
295 -4276 4288 0
-4277 4288 0
295 -4277 4289 0
-4278 4289 0
295 -4278 0
296 4290 0
-4279 4290 0
296 -4279 4291 0
-4280 4291 0
296 -4280 4292 0
-4281 4292 0
296 -4281 4293 0
-4282 4293 0
296 -4282 4294 0
-4283 4294 0
296 -4283 4295 0
-4284 4295 0
296 -4284 4296 0
-4285 4296 0
296 -4285 4297 0
-4286 4297 0
296 -4286 4298 0
-4287 4298 0
296 -4287 4299 0
-4288 4299 0
296 -4288 4300 0
-4289 4300 0
296 -4289 0
297 4301 0
-4290 4301 0
297 -4290 4302 0
-4291 4302 0
297 -4291 4303 0
-4292 4303 0
297 -4292 4304 0
-4293 4304 0
297 -4293 4305 0
-4294 4305 0
297 -4294 4306 0
-4295 4306 0
297 -4295 4307 0
-4296 4307 0
297 -4296 4308 0
-4297 4308 0
297 -4297 4309 0
-4298 4309 0
297 -4298 4310 0
-4299 4310 0
297 -4299 4311 0
-4300 4311 0
297 -4300 0
298 4312 0
-4301 4312 0
298 -4301 4313 0
-4302 4313 0
298 -4302 4314 0
-4303 4314 0
298 -4303 4315 0
-4304 4315 0
298 -4304 4316 0
-4305 4316 0
298 -4305 4317 0
-4306 4317 0
298 -4306 4318 0
-4307 4318 0
298 -4307 4319 0
-4308 4319 0
298 -4308 4320 0
-4309 4320 0
298 -4309 4321 0
-4310 4321 0
298 -4310 4322 0
-4311 4322 0
298 -4311 0
299 4323 0
-4312 4323 0
299 -4312 4324 0
-4313 4324 0
299 -4313 4325 0
-4314 4325 0
299 -4314 4326 0
-4315 4326 0
299 -4315 4327 0
-4316 4327 0
299 -4316 4328 0
-4317 4328 0
299 -4317 4329 0
-4318 4329 0
299 -4318 4330 0
-4319 4330 0
299 -4319 4331 0
-4320 4331 0
299 -4320 4332 0
-4321 4332 0
299 -4321 4333 0
-4322 4333 0
299 -4322 0
300 4334 0
-4323 4334 0
300 -4323 4335 0
-4324 4335 0
300 -4324 4336 0
-4325 4336 0
300 -4325 4337 0
-4326 4337 0
300 -4326 4338 0
-4327 4338 0
300 -4327 4339 0
-4328 4339 0
300 -4328 4340 0
-4329 4340 0
300 -4329 4341 0
-4330 4341 0
300 -4330 4342 0
-4331 4342 0
300 -4331 4343 0
-4332 4343 0
300 -4332 4344 0
-4333 4344 0
300 -4333 0
301 4345 0
-4334 4345 0
301 -4334 4346 0
-4335 4346 0
301 -4335 4347 0
-4336 4347 0
301 -4336 4348 0
-4337 4348 0
301 -4337 4349 0
-4338 4349 0
301 -4338 4350 0
-4339 4350 0
301 -4339 4351 0
-4340 4351 0
301 -4340 4352 0
-4341 4352 0
301 -4341 4353 0
-4342 4353 0
301 -4342 4354 0
-4343 4354 0
301 -4343 4355 0
-4344 4355 0
301 -4344 0
302 4356 0
-4345 4356 0
302 -4345 4357 0
-4346 4357 0
302 -4346 4358 0
-4347 4358 0
302 -4347 4359 0
-4348 4359 0
302 -4348 4360 0
-4349 4360 0
302 -4349 4361 0
-4350 4361 0
302 -4350 4362 0
-4351 4362 0
302 -4351 4363 0
-4352 4363 0
302 -4352 4364 0
-4353 4364 0
302 -4353 4365 0
-4354 4365 0
302 -4354 4366 0
-4355 4366 0
302 -4355 0
303 4367 0
-4356 4367 0
303 -4356 4368 0
-4357 4368 0
303 -4357 4369 0
-4358 4369 0
303 -4358 4370 0
-4359 4370 0
303 -4359 4371 0
-4360 4371 0
303 -4360 4372 0
-4361 4372 0
303 -4361 4373 0
-4362 4373 0
303 -4362 4374 0
-4363 4374 0
303 -4363 4375 0
-4364 4375 0
303 -4364 4376 0
-4365 4376 0
303 -4365 4377 0
-4366 4377 0
303 -4366 0
304 4378 0
-4367 4378 0
304 -4367 4379 0
-4368 4379 0
304 -4368 4380 0
-4369 4380 0
304 -4369 4381 0
-4370 4381 0
304 -4370 4382 0
-4371 4382 0
304 -4371 4383 0
-4372 4383 0
304 -4372 4384 0
-4373 4384 0
304 -4373 4385 0
-4374 4385 0
304 -4374 4386 0
-4375 4386 0
304 -4375 4387 0
-4376 4387 0
304 -4376 4388 0
-4377 4388 0
304 -4377 0
306 -4388 0
-289 4389 0
-4390 0
-4391 0
-4392 0
-4393 0
-4394 0
-290 4395 0
-4389 4395 0
-290 -4389 4396 0
-4390 4396 0
-290 -4390 4397 0
-4391 4397 0
-290 -4391 4398 0
-4392 4398 0
-290 -4392 4399 0
-4393 4399 0
-290 -4393 4400 0
-4394 4400 0
-290 -4394 0
-291 4401 0
-4395 4401 0
-291 -4395 4402 0
-4396 4402 0
-291 -4396 4403 0
-4397 4403 0
-291 -4397 4404 0
-4398 4404 0
-291 -4398 4405 0
-4399 4405 0
-291 -4399 4406 0
-4400 4406 0
-291 -4400 0
-292 4407 0
-4401 4407 0
-292 -4401 4408 0
-4402 4408 0
-292 -4402 4409 0
-4403 4409 0
-292 -4403 4410 0
-4404 4410 0
-292 -4404 4411 0
-4405 4411 0
-292 -4405 4412 0
-4406 4412 0
-292 -4406 0
-293 4413 0
-4407 4413 0
-293 -4407 4414 0
-4408 4414 0
-293 -4408 4415 0
-4409 4415 0
-293 -4409 4416 0
-4410 4416 0
-293 -4410 4417 0
-4411 4417 0
-293 -4411 4418 0
-4412 4418 0
-293 -4412 0
-294 4419 0
-4413 4419 0
-294 -4413 4420 0
-4414 4420 0
-294 -4414 4421 0
-4415 4421 0
-294 -4415 4422 0
-4416 4422 0
-294 -4416 4423 0
-4417 4423 0
-294 -4417 4424 0
-4418 4424 0
-294 -4418 0
-295 4425 0
-4419 4425 0
-295 -4419 4426 0
-4420 4426 0
-295 -4420 4427 0
-4421 4427 0
-295 -4421 4428 0
-4422 4428 0
-295 -4422 4429 0
-4423 4429 0
-295 -4423 4430 0
-4424 4430 0
-295 -4424 0
-296 4431 0
-4425 4431 0
-296 -4425 4432 0
-4426 4432 0
-296 -4426 4433 0
-4427 4433 0
-296 -4427 4434 0
-4428 4434 0
-296 -4428 4435 0
-4429 4435 0
-296 -4429 4436 0
-4430 4436 0
-296 -4430 0
-297 4437 0
-4431 4437 0
-297 -4431 4438 0
-4432 4438 0
-297 -4432 4439 0
-4433 4439 0
-297 -4433 4440 0
-4434 4440 0
-297 -4434 4441 0
-4435 4441 0
-297 -4435 4442 0
-4436 4442 0
-297 -4436 0
-298 4443 0
-4437 4443 0
-298 -4437 4444 0
-4438 4444 0
-298 -4438 4445 0
-4439 4445 0
-298 -4439 4446 0
-4440 4446 0
-298 -4440 4447 0
-4441 4447 0
-298 -4441 4448 0
-4442 4448 0
-298 -4442 0
-299 4449 0
-4443 4449 0
-299 -4443 4450 0
-4444 4450 0
-299 -4444 4451 0
-4445 4451 0
-299 -4445 4452 0
-4446 4452 0
-299 -4446 4453 0
-4447 4453 0
-299 -4447 4454 0
-4448 4454 0
-299 -4448 0
-300 4455 0
-4449 4455 0
-300 -4449 4456 0
-4450 4456 0
-300 -4450 4457 0
-4451 4457 0
-300 -4451 4458 0
-4452 4458 0
-300 -4452 4459 0
-4453 4459 0
-300 -4453 4460 0
-4454 4460 0
-300 -4454 0
-301 4461 0
-4455 4461 0
-301 -4455 4462 0
-4456 4462 0
-301 -4456 4463 0
-4457 4463 0
-301 -4457 4464 0
-4458 4464 0
-301 -4458 4465 0
-4459 4465 0
-301 -4459 4466 0
-4460 4466 0
-301 -4460 0
-302 4467 0
-4461 4467 0
-302 -4461 4468 0
-4462 4468 0
-302 -4462 4469 0
-4463 4469 0
-302 -4463 4470 0
-4464 4470 0
-302 -4464 4471 0
-4465 4471 0
-302 -4465 4472 0
-4466 4472 0
-302 -4466 0
-303 4473 0
-4467 4473 0
-303 -4467 4474 0
-4468 4474 0
-303 -4468 4475 0
-4469 4475 0
-303 -4469 4476 0
-4470 4476 0
-303 -4470 4477 0
-4471 4477 0
-303 -4471 4478 0
-4472 4478 0
-303 -4472 0
-304 4479 0
-4473 4479 0
-304 -4473 4480 0
-4474 4480 0
-304 -4474 4481 0
-4475 4481 0
-304 -4475 4482 0
-4476 4482 0
-304 -4476 4483 0
-4477 4483 0
-304 -4477 4484 0
-4478 4484 0
-304 -4478 0
-306 -4484 0
307 4485 0
-4486 0
-4487 0
-4488 0
-4489 0
-4490 0
-4491 0
-4492 0
-4493 0
-4494 0
-4495 0
308 4496 0
-4485 4496 0
308 -4485 4497 0
-4486 4497 0
308 -4486 4498 0
-4487 4498 0
308 -4487 4499 0
-4488 4499 0
308 -4488 4500 0
-4489 4500 0
308 -4489 4501 0
-4490 4501 0
308 -4490 4502 0
-4491 4502 0
308 -4491 4503 0
-4492 4503 0
308 -4492 4504 0
-4493 4504 0
308 -4493 4505 0
-4494 4505 0
308 -4494 4506 0
-4495 4506 0
308 -4495 0
309 4507 0
-4496 4507 0
309 -4496 4508 0
-4497 4508 0
309 -4497 4509 0
-4498 4509 0
309 -4498 4510 0
-4499 4510 0
309 -4499 4511 0
-4500 4511 0
309 -4500 4512 0
-4501 4512 0
309 -4501 4513 0
-4502 4513 0
309 -4502 4514 0
-4503 4514 0
309 -4503 4515 0
-4504 4515 0
309 -4504 4516 0
-4505 4516 0
309 -4505 4517 0
-4506 4517 0
309 -4506 0
310 4518 0
-4507 4518 0
310 -4507 4519 0
-4508 4519 0
310 -4508 4520 0
-4509 4520 0
310 -4509 4521 0
-4510 4521 0
310 -4510 4522 0
-4511 4522 0
310 -4511 4523 0
-4512 4523 0
310 -4512 4524 0
-4513 4524 0
310 -4513 4525 0
-4514 4525 0
310 -4514 4526 0
-4515 4526 0
310 -4515 4527 0
-4516 4527 0
310 -4516 4528 0
-4517 4528 0
310 -4517 0
311 4529 0
-4518 4529 0
311 -4518 4530 0
-4519 4530 0
311 -4519 4531 0
-4520 4531 0
311 -4520 4532 0
-4521 4532 0
311 -4521 4533 0
-4522 4533 0
311 -4522 4534 0
-4523 4534 0
311 -4523 4535 0
-4524 4535 0
311 -4524 4536 0
-4525 4536 0
311 -4525 4537 0
-4526 4537 0
311 -4526 4538 0
-4527 4538 0
311 -4527 4539 0
-4528 4539 0
311 -4528 0
312 4540 0
-4529 4540 0
312 -4529 4541 0
-4530 4541 0
312 -4530 4542 0
-4531 4542 0
312 -4531 4543 0
-4532 4543 0
312 -4532 4544 0
-4533 4544 0
312 -4533 4545 0
-4534 4545 0
312 -4534 4546 0
-4535 4546 0
312 -4535 4547 0
-4536 4547 0
312 -4536 4548 0
-4537 4548 0
312 -4537 4549 0
-4538 4549 0
312 -4538 4550 0
-4539 4550 0
312 -4539 0
313 4551 0
-4540 4551 0
313 -4540 4552 0
-4541 4552 0
313 -4541 4553 0
-4542 4553 0
313 -4542 4554 0
-4543 4554 0
313 -4543 4555 0
-4544 4555 0
313 -4544 4556 0
-4545 4556 0
313 -4545 4557 0
-4546 4557 0
313 -4546 4558 0
-4547 4558 0
313 -4547 4559 0
-4548 4559 0
313 -4548 4560 0
-4549 4560 0
313 -4549 4561 0
-4550 4561 0
313 -4550 0
314 4562 0
-4551 4562 0
314 -4551 4563 0
-4552 4563 0
314 -4552 4564 0
-4553 4564 0
314 -4553 4565 0
-4554 4565 0
314 -4554 4566 0
-4555 4566 0
314 -4555 4567 0
-4556 4567 0
314 -4556 4568 0
-4557 4568 0
314 -4557 4569 0
-4558 4569 0
314 -4558 4570 0
-4559 4570 0
314 -4559 4571 0
-4560 4571 0
314 -4560 4572 0
-4561 4572 0
314 -4561 0
315 4573 0
-4562 4573 0
315 -4562 4574 0
-4563 4574 0
315 -4563 4575 0
-4564 4575 0
315 -4564 4576 0
-4565 4576 0
315 -4565 4577 0
-4566 4577 0
315 -4566 4578 0
-4567 4578 0
315 -4567 4579 0
-4568 4579 0
315 -4568 4580 0
-4569 4580 0
315 -4569 4581 0
-4570 4581 0
315 -4570 4582 0
-4571 4582 0
315 -4571 4583 0
-4572 4583 0
315 -4572 0
316 4584 0
-4573 4584 0
316 -4573 4585 0
-4574 4585 0
316 -4574 4586 0
-4575 4586 0
316 -4575 4587 0
-4576 4587 0
316 -4576 4588 0
-4577 4588 0
316 -4577 4589 0
-4578 4589 0
316 -4578 4590 0
-4579 4590 0
316 -4579 4591 0
-4580 4591 0
316 -4580 4592 0
-4581 4592 0
316 -4581 4593 0
-4582 4593 0
316 -4582 4594 0
-4583 4594 0
316 -4583 0
317 4595 0
-4584 4595 0
317 -4584 4596 0
-4585 4596 0
317 -4585 4597 0
-4586 4597 0
317 -4586 4598 0
-4587 4598 0
317 -4587 4599 0
-4588 4599 0
317 -4588 4600 0
-4589 4600 0
317 -4589 4601 0
-4590 4601 0
317 -4590 4602 0
-4591 4602 0
317 -4591 4603 0
-4592 4603 0
317 -4592 4604 0
-4593 4604 0
317 -4593 4605 0
-4594 4605 0
317 -4594 0
318 4606 0
-4595 4606 0
318 -4595 4607 0
-4596 4607 0
318 -4596 4608 0
-4597 4608 0
318 -4597 4609 0
-4598 4609 0
318 -4598 4610 0
-4599 4610 0
318 -4599 4611 0
-4600 4611 0
318 -4600 4612 0
-4601 4612 0
318 -4601 4613 0
-4602 4613 0
318 -4602 4614 0
-4603 4614 0
318 -4603 4615 0
-4604 4615 0
318 -4604 4616 0
-4605 4616 0
318 -4605 0
319 4617 0
-4606 4617 0
319 -4606 4618 0
-4607 4618 0
319 -4607 4619 0
-4608 4619 0
319 -4608 4620 0
-4609 4620 0
319 -4609 4621 0
-4610 4621 0
319 -4610 4622 0
-4611 4622 0
319 -4611 4623 0
-4612 4623 0
319 -4612 4624 0
-4613 4624 0
319 -4613 4625 0
-4614 4625 0
319 -4614 4626 0
-4615 4626 0
319 -4615 4627 0
-4616 4627 0
319 -4616 0
320 4628 0
-4617 4628 0
320 -4617 4629 0
-4618 4629 0
320 -4618 4630 0
-4619 4630 0
320 -4619 4631 0
-4620 4631 0
320 -4620 4632 0
-4621 4632 0
320 -4621 4633 0
-4622 4633 0
320 -4622 4634 0
-4623 4634 0
320 -4623 4635 0
-4624 4635 0
320 -4624 4636 0
-4625 4636 0
320 -4625 4637 0
-4626 4637 0
320 -4626 4638 0
-4627 4638 0
320 -4627 0
321 4639 0
-4628 4639 0
321 -4628 4640 0
-4629 4640 0
321 -4629 4641 0
-4630 4641 0
321 -4630 4642 0
-4631 4642 0
321 -4631 4643 0
-4632 4643 0
321 -4632 4644 0
-4633 4644 0
321 -4633 4645 0
-4634 4645 0
321 -4634 4646 0
-4635 4646 0
321 -4635 4647 0
-4636 4647 0
321 -4636 4648 0
-4637 4648 0
321 -4637 4649 0
-4638 4649 0
321 -4638 0
322 4650 0
-4639 4650 0
322 -4639 4651 0
-4640 4651 0
322 -4640 4652 0
-4641 4652 0
322 -4641 4653 0
-4642 4653 0
322 -4642 4654 0
-4643 4654 0
322 -4643 4655 0
-4644 4655 0
322 -4644 4656 0
-4645 4656 0
322 -4645 4657 0
-4646 4657 0
322 -4646 4658 0
-4647 4658 0
322 -4647 4659 0
-4648 4659 0
322 -4648 4660 0
-4649 4660 0
322 -4649 0
323 -4660 0
-307 4661 0
-4662 0
-4663 0
-4664 0
-4665 0
-4666 0
-308 4667 0
-4661 4667 0
-308 -4661 4668 0
-4662 4668 0
-308 -4662 4669 0
-4663 4669 0
-308 -4663 4670 0
-4664 4670 0
-308 -4664 4671 0
-4665 4671 0
-308 -4665 4672 0
-4666 4672 0
-308 -4666 0
-309 4673 0
-4667 4673 0
-309 -4667 4674 0
-4668 4674 0
-309 -4668 4675 0
-4669 4675 0
-309 -4669 4676 0
-4670 4676 0
-309 -4670 4677 0
-4671 4677 0
-309 -4671 4678 0
-4672 4678 0
-309 -4672 0
-310 4679 0
-4673 4679 0
-310 -4673 4680 0
-4674 4680 0
-310 -4674 4681 0
-4675 4681 0
-310 -4675 4682 0
-4676 4682 0
-310 -4676 4683 0
-4677 4683 0
-310 -4677 4684 0
-4678 4684 0
-310 -4678 0
-311 4685 0
-4679 4685 0
-311 -4679 4686 0
-4680 4686 0
-311 -4680 4687 0
-4681 4687 0
-311 -4681 4688 0
-4682 4688 0
-311 -4682 4689 0
-4683 4689 0
-311 -4683 4690 0
-4684 4690 0
-311 -4684 0
-312 4691 0
-4685 4691 0
-312 -4685 4692 0
-4686 4692 0
-312 -4686 4693 0
-4687 4693 0
-312 -4687 4694 0
-4688 4694 0
-312 -4688 4695 0
-4689 4695 0
-312 -4689 4696 0
-4690 4696 0
-312 -4690 0
-313 4697 0
-4691 4697 0
-313 -4691 4698 0
-4692 4698 0
-313 -4692 4699 0
-4693 4699 0
-313 -4693 4700 0
-4694 4700 0
-313 -4694 4701 0
-4695 4701 0
-313 -4695 4702 0
-4696 4702 0
-313 -4696 0
-314 4703 0
-4697 4703 0
-314 -4697 4704 0
-4698 4704 0
-314 -4698 4705 0
-4699 4705 0
-314 -4699 4706 0
-4700 4706 0
-314 -4700 4707 0
-4701 4707 0
-314 -4701 4708 0
-4702 4708 0
-314 -4702 0
-315 4709 0
-4703 4709 0
-315 -4703 4710 0
-4704 4710 0
-315 -4704 4711 0
-4705 4711 0
-315 -4705 4712 0
-4706 4712 0
-315 -4706 4713 0
-4707 4713 0
-315 -4707 4714 0
-4708 4714 0
-315 -4708 0
-316 4715 0
-4709 4715 0
-316 -4709 4716 0
-4710 4716 0
-316 -4710 4717 0
-4711 4717 0
-316 -4711 4718 0
-4712 4718 0
-316 -4712 4719 0
-4713 4719 0
-316 -4713 4720 0
-4714 4720 0
-316 -4714 0
-317 4721 0
-4715 4721 0
-317 -4715 4722 0
-4716 4722 0
-317 -4716 4723 0
-4717 4723 0
-317 -4717 4724 0
-4718 4724 0
-317 -4718 4725 0
-4719 4725 0
-317 -4719 4726 0
-4720 4726 0
-317 -4720 0
-318 4727 0
-4721 4727 0
-318 -4721 4728 0
-4722 4728 0
-318 -4722 4729 0
-4723 4729 0
-318 -4723 4730 0
-4724 4730 0
-318 -4724 4731 0
-4725 4731 0
-318 -4725 4732 0
-4726 4732 0
-318 -4726 0
-319 4733 0
-4727 4733 0
-319 -4727 4734 0
-4728 4734 0
-319 -4728 4735 0
-4729 4735 0
-319 -4729 4736 0
-4730 4736 0
-319 -4730 4737 0
-4731 4737 0
-319 -4731 4738 0
-4732 4738 0
-319 -4732 0
-320 4739 0
-4733 4739 0
-320 -4733 4740 0
-4734 4740 0
-320 -4734 4741 0
-4735 4741 0
-320 -4735 4742 0
-4736 4742 0
-320 -4736 4743 0
-4737 4743 0
-320 -4737 4744 0
-4738 4744 0
-320 -4738 0
-321 4745 0
-4739 4745 0
-321 -4739 4746 0
-4740 4746 0
-321 -4740 4747 0
-4741 4747 0
-321 -4741 4748 0
-4742 4748 0
-321 -4742 4749 0
-4743 4749 0
-321 -4743 4750 0
-4744 4750 0
-321 -4744 0
-322 4751 0
-4745 4751 0
-322 -4745 4752 0
-4746 4752 0
-322 -4746 4753 0
-4747 4753 0
-322 -4747 4754 0
-4748 4754 0
-322 -4748 4755 0
-4749 4755 0
-322 -4749 4756 0
-4750 4756 0
-322 -4750 0
-323 -4756 0
-19 37 0
-19 37 -4757 0
19 -37 -4757 0
19 37 4757 0
-19 -37 4757 0
-21 38 -4757 0
-21 38 -4759 0
21 -38 -4759 0
21 38 4759 0
-21 -38 4759 0
4757 -4758 0
-4758 4759 0
-4757 4758 -4759 0
-22 40 -4758 0
-22 40 -4761 0
22 -40 -4761 0
22 40 4761 0
-22 -40 4761 0
4758 -4760 0
-4760 4761 0
-4758 4760 -4761 0
-23 41 -4760 0
-23 41 -4763 0
23 -41 -4763 0
23 41 4763 0
-23 -41 4763 0
4760 -4762 0
-4762 4763 0
-4760 4762 -4763 0
-24 42 -4762 0
-24 42 -4765 0
24 -42 -4765 0
24 42 4765 0
-24 -42 4765 0
4762 -4764 0
-4764 4765 0
-4762 4764 -4765 0
-25 43 -4764 0
-25 43 -4767 0
25 -43 -4767 0
25 43 4767 0
-25 -43 4767 0
4764 -4766 0
-4766 4767 0
-4764 4766 -4767 0
-26 44 -4766 0
-26 44 -4769 0
26 -44 -4769 0
26 44 4769 0
-26 -44 4769 0
4766 -4768 0
-4768 4769 0
-4766 4768 -4769 0
-27 45 -4768 0
-27 45 -4771 0
27 -45 -4771 0
27 45 4771 0
-27 -45 4771 0
4768 -4770 0
-4770 4771 0
-4768 4770 -4771 0
-28 46 -4770 0
-28 46 -4773 0
28 -46 -4773 0
28 46 4773 0
-28 -46 4773 0
4770 -4772 0
-4772 4773 0
-4770 4772 -4773 0
-29 47 -4772 0
-29 47 -4775 0
29 -47 -4775 0
29 47 4775 0
-29 -47 4775 0
4772 -4774 0
-4774 4775 0
-4772 4774 -4775 0
-30 48 -4774 0
-30 48 -4777 0
30 -48 -4777 0
30 48 4777 0
-30 -48 4777 0
4774 -4776 0
-4776 4777 0
-4774 4776 -4777 0
-31 49 -4776 0
-31 49 -4779 0
31 -49 -4779 0
31 49 4779 0
-31 -49 4779 0
4776 -4778 0
-4778 4779 0
-4776 4778 -4779 0
-32 50 -4778 0
-32 50 -4781 0
32 -50 -4781 0
32 50 4781 0
-32 -50 4781 0
4778 -4780 0
-4780 4781 0
-4778 4780 -4781 0
-33 51 -4780 0
-33 51 -4783 0
33 -51 -4783 0
33 51 4783 0
-33 -51 4783 0
4780 -4782 0
-4782 4783 0
-4780 4782 -4783 0
-34 52 -4782 0
-34 52 -4785 0
34 -52 -4785 0
34 52 4785 0
-34 -52 4785 0
4782 -4784 0
-4784 4785 0
-4782 4784 -4785 0
-35 53 -4784 0
-35 53 -4787 0
35 -53 -4787 0
35 53 4787 0
-35 -53 4787 0
4784 -4786 0
-4786 4787 0
-4784 4786 -4787 0
-36 54 -4786 0
-36 54 -4789 0
36 -54 -4789 0
36 54 4789 0
-36 -54 4789 0
4786 -4788 0
-4788 4789 0
-4786 4788 -4789 0
-37 55 0
-37 55 -4790 0
37 -55 -4790 0
37 55 4790 0
-37 -55 4790 0
-38 56 -4790 0
-38 56 -4792 0
38 -56 -4792 0
38 56 4792 0
-38 -56 4792 0
4790 -4791 0
-4791 4792 0
-4790 4791 -4792 0
-40 57 -4791 0
-40 57 -4794 0
40 -57 -4794 0
40 57 4794 0
-40 -57 4794 0
4791 -4793 0
-4793 4794 0
-4791 4793 -4794 0
-41 59 -4793 0
-41 59 -4796 0
41 -59 -4796 0
41 59 4796 0
-41 -59 4796 0
4793 -4795 0
-4795 4796 0
-4793 4795 -4796 0
-42 60 -4795 0
-42 60 -4798 0
42 -60 -4798 0
42 60 4798 0
-42 -60 4798 0
4795 -4797 0
-4797 4798 0
-4795 4797 -4798 0
-43 61 -4797 0
-43 61 -4800 0
43 -61 -4800 0
43 61 4800 0
-43 -61 4800 0
4797 -4799 0
-4799 4800 0
-4797 4799 -4800 0
-44 62 -4799 0
-44 62 -4802 0
44 -62 -4802 0
44 62 4802 0
-44 -62 4802 0
4799 -4801 0
-4801 4802 0
-4799 4801 -4802 0
-45 63 -4801 0
-45 63 -4804 0
45 -63 -4804 0
45 63 4804 0
-45 -63 4804 0
4801 -4803 0
-4803 4804 0
-4801 4803 -4804 0
-46 64 -4803 0
-46 64 -4806 0
46 -64 -4806 0
46 64 4806 0
-46 -64 4806 0
4803 -4805 0
-4805 4806 0
-4803 4805 -4806 0
-47 65 -4805 0
-47 65 -4808 0
47 -65 -4808 0
47 65 4808 0
-47 -65 4808 0
4805 -4807 0
-4807 4808 0
-4805 4807 -4808 0
-48 66 -4807 0
-48 66 -4810 0
48 -66 -4810 0
48 66 4810 0
-48 -66 4810 0
4807 -4809 0
-4809 4810 0
-4807 4809 -4810 0
-49 67 -4809 0
-49 67 -4812 0
49 -67 -4812 0
49 67 4812 0
-49 -67 4812 0
4809 -4811 0
-4811 4812 0
-4809 4811 -4812 0
-50 68 -4811 0
-50 68 -4814 0
50 -68 -4814 0
50 68 4814 0
-50 -68 4814 0
4811 -4813 0
-4813 4814 0
-4811 4813 -4814 0
-51 69 -4813 0
-51 69 -4816 0
51 -69 -4816 0
51 69 4816 0
-51 -69 4816 0
4813 -4815 0
-4815 4816 0
-4813 4815 -4816 0
-52 70 -4815 0
-52 70 -4818 0
52 -70 -4818 0
52 70 4818 0
-52 -70 4818 0
4815 -4817 0
-4817 4818 0
-4815 4817 -4818 0
-53 71 -4817 0
-53 71 -4820 0
53 -71 -4820 0
53 71 4820 0
-53 -71 4820 0
4817 -4819 0
-4819 4820 0
-4817 4819 -4820 0
-54 72 -4819 0
-54 72 -4822 0
54 -72 -4822 0
54 72 4822 0
-54 -72 4822 0
4819 -4821 0
-4821 4822 0
-4819 4821 -4822 0
-55 73 0
-55 73 -4823 0
55 -73 -4823 0
55 73 4823 0
-55 -73 4823 0
-56 74 -4823 0
-56 74 -4825 0
56 -74 -4825 0
56 74 4825 0
-56 -74 4825 0
4823 -4824 0
-4824 4825 0
-4823 4824 -4825 0
-57 75 -4824 0
-57 75 -4827 0
57 -75 -4827 0
57 75 4827 0
-57 -75 4827 0
4824 -4826 0
-4826 4827 0
-4824 4826 -4827 0
-59 76 -4826 0
-59 76 -4829 0
59 -76 -4829 0
59 76 4829 0
-59 -76 4829 0
4826 -4828 0
-4828 4829 0
-4826 4828 -4829 0
-60 78 -4828 0
-60 78 -4831 0
60 -78 -4831 0
60 78 4831 0
-60 -78 4831 0
4828 -4830 0
-4830 4831 0
-4828 4830 -4831 0
-61 79 -4830 0
-61 79 -4833 0
61 -79 -4833 0
61 79 4833 0
-61 -79 4833 0
4830 -4832 0
-4832 4833 0
-4830 4832 -4833 0
-62 80 -4832 0
-62 80 -4835 0
62 -80 -4835 0
62 80 4835 0
-62 -80 4835 0
4832 -4834 0
-4834 4835 0
-4832 4834 -4835 0
-63 81 -4834 0
-63 81 -4837 0
63 -81 -4837 0
63 81 4837 0
-63 -81 4837 0
4834 -4836 0
-4836 4837 0
-4834 4836 -4837 0
-64 82 -4836 0
-64 82 -4839 0
64 -82 -4839 0
64 82 4839 0
-64 -82 4839 0
4836 -4838 0
-4838 4839 0
-4836 4838 -4839 0
-65 83 -4838 0
-65 83 -4841 0
65 -83 -4841 0
65 83 4841 0
-65 -83 4841 0
4838 -4840 0
-4840 4841 0
-4838 4840 -4841 0
-66 84 -4840 0
-66 84 -4843 0
66 -84 -4843 0
66 84 4843 0
-66 -84 4843 0
4840 -4842 0
-4842 4843 0
-4840 4842 -4843 0
-67 85 -4842 0
-67 85 -4845 0
67 -85 -4845 0
67 85 4845 0
-67 -85 4845 0
4842 -4844 0
-4844 4845 0
-4842 4844 -4845 0
-68 86 -4844 0
-68 86 -4847 0
68 -86 -4847 0
68 86 4847 0
-68 -86 4847 0
4844 -4846 0
-4846 4847 0
-4844 4846 -4847 0
-69 87 -4846 0
-69 87 -4849 0
69 -87 -4849 0
69 87 4849 0
-69 -87 4849 0
4846 -4848 0
-4848 4849 0
-4846 4848 -4849 0
-70 88 -4848 0
-70 88 -4851 0
70 -88 -4851 0
70 88 4851 0
-70 -88 4851 0
4848 -4850 0
-4850 4851 0
-4848 4850 -4851 0
-71 89 -4850 0
-71 89 -4853 0
71 -89 -4853 0
71 89 4853 0
-71 -89 4853 0
4850 -4852 0
-4852 4853 0
-4850 4852 -4853 0
-72 90 -4852 0
-72 90 -4855 0
72 -90 -4855 0
72 90 4855 0
-72 -90 4855 0
4852 -4854 0
-4854 4855 0
-4852 4854 -4855 0
-73 91 0
-73 91 -4856 0
73 -91 -4856 0
73 91 4856 0
-73 -91 4856 0
-74 92 -4856 0
-74 92 -4858 0
74 -92 -4858 0
74 92 4858 0
-74 -92 4858 0
4856 -4857 0
-4857 4858 0
-4856 4857 -4858 0
-75 93 -4857 0
-75 93 -4860 0
75 -93 -4860 0
75 93 4860 0
-75 -93 4860 0
4857 -4859 0
-4859 4860 0
-4857 4859 -4860 0
-76 94 -4859 0
-76 94 -4862 0
76 -94 -4862 0
76 94 4862 0
-76 -94 4862 0
4859 -4861 0
-4861 4862 0
-4859 4861 -4862 0
-78 95 -4861 0
-78 95 -4864 0
78 -95 -4864 0
78 95 4864 0
-78 -95 4864 0
4861 -4863 0
-4863 4864 0
-4861 4863 -4864 0
-79 97 -4863 0
-79 97 -4866 0
79 -97 -4866 0
79 97 4866 0
-79 -97 4866 0
4863 -4865 0
-4865 4866 0
-4863 4865 -4866 0
-80 98 -4865 0
-80 98 -4868 0
80 -98 -4868 0
80 98 4868 0
-80 -98 4868 0
4865 -4867 0
-4867 4868 0
-4865 4867 -4868 0
-81 99 -4867 0
-81 99 -4870 0
81 -99 -4870 0
81 99 4870 0
-81 -99 4870 0
4867 -4869 0
-4869 4870 0
-4867 4869 -4870 0
-82 100 -4869 0
-82 100 -4872 0
82 -100 -4872 0
82 100 4872 0
-82 -100 4872 0
4869 -4871 0
-4871 4872 0
-4869 4871 -4872 0
-83 101 -4871 0
-83 101 -4874 0
83 -101 -4874 0
83 101 4874 0
-83 -101 4874 0
4871 -4873 0
-4873 4874 0
-4871 4873 -4874 0
-84 102 -4873 0
-84 102 -4876 0
84 -102 -4876 0
84 102 4876 0
-84 -102 4876 0
4873 -4875 0
-4875 4876 0
-4873 4875 -4876 0
-85 103 -4875 0
-85 103 -4878 0
85 -103 -4878 0
85 103 4878 0
-85 -103 4878 0
4875 -4877 0
-4877 4878 0
-4875 4877 -4878 0
-86 104 -4877 0
-86 104 -4880 0
86 -104 -4880 0
86 104 4880 0
-86 -104 4880 0
4877 -4879 0
-4879 4880 0
-4877 4879 -4880 0
-87 105 -4879 0
-87 105 -4882 0
87 -105 -4882 0
87 105 4882 0
-87 -105 4882 0
4879 -4881 0
-4881 4882 0
-4879 4881 -4882 0
-88 106 -4881 0
-88 106 -4884 0
88 -106 -4884 0
88 106 4884 0
-88 -106 4884 0
4881 -4883 0
-4883 4884 0
-4881 4883 -4884 0
-89 107 -4883 0
-89 107 -4886 0
89 -107 -4886 0
89 107 4886 0
-89 -107 4886 0
4883 -4885 0
-4885 4886 0
-4883 4885 -4886 0
-90 108 -4885 0
-90 108 -4888 0
90 -108 -4888 0
90 108 4888 0
-90 -108 4888 0
4885 -4887 0
-4887 4888 0
-4885 4887 -4888 0
-91 109 0
-91 109 -4889 0
91 -109 -4889 0
91 109 4889 0
-91 -109 4889 0
-92 110 -4889 0
-92 110 -4891 0
92 -110 -4891 0
92 110 4891 0
-92 -110 4891 0
4889 -4890 0
-4890 4891 0
-4889 4890 -4891 0
-93 111 -4890 0
-93 111 -4893 0
93 -111 -4893 0
93 111 4893 0
-93 -111 4893 0
4890 -4892 0
-4892 4893 0
-4890 4892 -4893 0
-94 112 -4892 0
-94 112 -4895 0
94 -112 -4895 0
94 112 4895 0
-94 -112 4895 0
4892 -4894 0
-4894 4895 0
-4892 4894 -4895 0
-95 113 -4894 0
-95 113 -4897 0
95 -113 -4897 0
95 113 4897 0
-95 -113 4897 0
4894 -4896 0
-4896 4897 0
-4894 4896 -4897 0
-97 114 -4896 0
-97 114 -4899 0
97 -114 -4899 0
97 114 4899 0
-97 -114 4899 0
4896 -4898 0
-4898 4899 0
-4896 4898 -4899 0
-98 116 -4898 0
-98 116 -4901 0
98 -116 -4901 0
98 116 4901 0
-98 -116 4901 0
4898 -4900 0
-4900 4901 0
-4898 4900 -4901 0
-99 117 -4900 0
-99 117 -4903 0
99 -117 -4903 0
99 117 4903 0
-99 -117 4903 0
4900 -4902 0
-4902 4903 0
-4900 4902 -4903 0
-100 118 -4902 0
-100 118 -4905 0
100 -118 -4905 0
100 118 4905 0
-100 -118 4905 0
4902 -4904 0
-4904 4905 0
-4902 4904 -4905 0
-101 119 -4904 0
-101 119 -4907 0
101 -119 -4907 0
101 119 4907 0
-101 -119 4907 0
4904 -4906 0
-4906 4907 0
-4904 4906 -4907 0
-102 120 -4906 0
-102 120 -4909 0
102 -120 -4909 0
102 120 4909 0
-102 -120 4909 0
4906 -4908 0
-4908 4909 0
-4906 4908 -4909 0
-103 121 -4908 0
-103 121 -4911 0
103 -121 -4911 0
103 121 4911 0
-103 -121 4911 0
4908 -4910 0
-4910 4911 0
-4908 4910 -4911 0
-104 122 -4910 0
-104 122 -4913 0
104 -122 -4913 0
104 122 4913 0
-104 -122 4913 0
4910 -4912 0
-4912 4913 0
-4910 4912 -4913 0
-105 123 -4912 0
-105 123 -4915 0
105 -123 -4915 0
105 123 4915 0
-105 -123 4915 0
4912 -4914 0
-4914 4915 0
-4912 4914 -4915 0
-106 124 -4914 0
-106 124 -4917 0
106 -124 -4917 0
106 124 4917 0
-106 -124 4917 0
4914 -4916 0
-4916 4917 0
-4914 4916 -4917 0
-107 125 -4916 0
-107 125 -4919 0
107 -125 -4919 0
107 125 4919 0
-107 -125 4919 0
4916 -4918 0
-4918 4919 0
-4916 4918 -4919 0
-108 126 -4918 0
-108 126 -4921 0
108 -126 -4921 0
108 126 4921 0
-108 -126 4921 0
4918 -4920 0
-4920 4921 0
-4918 4920 -4921 0
-127 145 0
-127 145 -4922 0
127 -145 -4922 0
127 145 4922 0
-127 -145 4922 0
-128 146 -4922 0
-128 146 -4924 0
128 -146 -4924 0
128 146 4924 0
-128 -146 4924 0
4922 -4923 0
-4923 4924 0
-4922 4923 -4924 0
-129 147 -4923 0
-129 147 -4926 0
129 -147 -4926 0
129 147 4926 0
-129 -147 4926 0
4923 -4925 0
-4925 4926 0
-4923 4925 -4926 0
-130 148 -4925 0
-130 148 -4928 0
130 -148 -4928 0
130 148 4928 0
-130 -148 4928 0
4925 -4927 0
-4927 4928 0
-4925 4927 -4928 0
-131 149 -4927 0
-131 149 -4930 0
131 -149 -4930 0
131 149 4930 0
-131 -149 4930 0
4927 -4929 0
-4929 4930 0
-4927 4929 -4930 0
-132 150 -4929 0
-132 150 -4932 0
132 -150 -4932 0
132 150 4932 0
-132 -150 4932 0
4929 -4931 0
-4931 4932 0
-4929 4931 -4932 0
-133 151 -4931 0
-133 151 -4934 0
133 -151 -4934 0
133 151 4934 0
-133 -151 4934 0
4931 -4933 0
-4933 4934 0
-4931 4933 -4934 0
-135 152 -4933 0
-135 152 -4936 0
135 -152 -4936 0
135 152 4936 0
-135 -152 4936 0
4933 -4935 0
-4935 4936 0
-4933 4935 -4936 0
-136 154 -4935 0
-136 154 -4938 0
136 -154 -4938 0
136 154 4938 0
-136 -154 4938 0
4935 -4937 0
-4937 4938 0
-4935 4937 -4938 0
-137 155 -4937 0
-137 155 -4940 0
137 -155 -4940 0
137 155 4940 0
-137 -155 4940 0
4937 -4939 0
-4939 4940 0
-4937 4939 -4940 0
-138 156 -4939 0
-138 156 -4942 0
138 -156 -4942 0
138 156 4942 0
-138 -156 4942 0
4939 -4941 0
-4941 4942 0
-4939 4941 -4942 0
-139 157 -4941 0
-139 157 -4944 0
139 -157 -4944 0
139 157 4944 0
-139 -157 4944 0
4941 -4943 0
-4943 4944 0
-4941 4943 -4944 0
-140 158 -4943 0
-140 158 -4946 0
140 -158 -4946 0
140 158 4946 0
-140 -158 4946 0
4943 -4945 0
-4945 4946 0
-4943 4945 -4946 0
-141 159 -4945 0
-141 159 -4948 0
141 -159 -4948 0
141 159 4948 0
-141 -159 4948 0
4945 -4947 0
-4947 4948 0
-4945 4947 -4948 0
-142 160 -4947 0
-142 160 -4950 0
142 -160 -4950 0
142 160 4950 0
-142 -160 4950 0
4947 -4949 0
-4949 4950 0
-4947 4949 -4950 0
-143 161 -4949 0
-143 161 -4952 0
143 -161 -4952 0
143 161 4952 0
-143 -161 4952 0
4949 -4951 0
-4951 4952 0
-4949 4951 -4952 0
-144 162 -4951 0
-144 162 -4954 0
144 -162 -4954 0
144 162 4954 0
-144 -162 4954 0
4951 -4953 0
-4953 4954 0
-4951 4953 -4954 0
-145 163 0
-145 163 -4955 0
145 -163 -4955 0
145 163 4955 0
-145 -163 4955 0
-146 164 -4955 0
-146 164 -4957 0
146 -164 -4957 0
146 164 4957 0
-146 -164 4957 0
4955 -4956 0
-4956 4957 0
-4955 4956 -4957 0
-147 165 -4956 0
-147 165 -4959 0
147 -165 -4959 0
147 165 4959 0
-147 -165 4959 0
4956 -4958 0
-4958 4959 0
-4956 4958 -4959 0
-148 166 -4958 0
-148 166 -4961 0
148 -166 -4961 0
148 166 4961 0
-148 -166 4961 0
4958 -4960 0
-4960 4961 0
-4958 4960 -4961 0
-149 167 -4960 0
-149 167 -4963 0
149 -167 -4963 0
149 167 4963 0
-149 -167 4963 0
4960 -4962 0
-4962 4963 0
-4960 4962 -4963 0
-150 168 -4962 0
-150 168 -4965 0
150 -168 -4965 0
150 168 4965 0
-150 -168 4965 0
4962 -4964 0
-4964 4965 0
-4962 4964 -4965 0
-151 169 -4964 0
-151 169 -4967 0
151 -169 -4967 0
151 169 4967 0
-151 -169 4967 0
4964 -4966 0
-4966 4967 0
-4964 4966 -4967 0
-152 170 -4966 0
-152 170 -4969 0
152 -170 -4969 0
152 170 4969 0
-152 -170 4969 0
4966 -4968 0
-4968 4969 0
-4966 4968 -4969 0
-154 171 -4968 0
-154 171 -4971 0
154 -171 -4971 0
154 171 4971 0
-154 -171 4971 0
4968 -4970 0
-4970 4971 0
-4968 4970 -4971 0
-155 173 -4970 0
-155 173 -4973 0
155 -173 -4973 0
155 173 4973 0
-155 -173 4973 0
4970 -4972 0
-4972 4973 0
-4970 4972 -4973 0
-156 174 -4972 0
-156 174 -4975 0
156 -174 -4975 0
156 174 4975 0
-156 -174 4975 0
4972 -4974 0
-4974 4975 0
-4972 4974 -4975 0
-157 175 -4974 0
-157 175 -4977 0
157 -175 -4977 0
157 175 4977 0
-157 -175 4977 0
4974 -4976 0
-4976 4977 0
-4974 4976 -4977 0
-158 176 -4976 0
-158 176 -4979 0
158 -176 -4979 0
158 176 4979 0
-158 -176 4979 0
4976 -4978 0
-4978 4979 0
-4976 4978 -4979 0
-159 177 -4978 0
-159 177 -4981 0
159 -177 -4981 0
159 177 4981 0
-159 -177 4981 0
4978 -4980 0
-4980 4981 0
-4978 4980 -4981 0
-160 178 -4980 0
-160 178 -4983 0
160 -178 -4983 0
160 178 4983 0
-160 -178 4983 0
4980 -4982 0
-4982 4983 0
-4980 4982 -4983 0
-161 179 -4982 0
-161 179 -4985 0
161 -179 -4985 0
161 179 4985 0
-161 -179 4985 0
4982 -4984 0
-4984 4985 0
-4982 4984 -4985 0
-162 180 -4984 0
-162 180 -4987 0
162 -180 -4987 0
162 180 4987 0
-162 -180 4987 0
4984 -4986 0
-4986 4987 0
-4984 4986 -4987 0
-163 181 0
-163 181 -4988 0
163 -181 -4988 0
163 181 4988 0
-163 -181 4988 0
-164 182 -4988 0
-164 182 -4990 0
164 -182 -4990 0
164 182 4990 0
-164 -182 4990 0
4988 -4989 0
-4989 4990 0
-4988 4989 -4990 0
-165 183 -4989 0
-165 183 -4992 0
165 -183 -4992 0
165 183 4992 0
-165 -183 4992 0
4989 -4991 0
-4991 4992 0
-4989 4991 -4992 0
-166 184 -4991 0
-166 184 -4994 0
166 -184 -4994 0
166 184 4994 0
-166 -184 4994 0
4991 -4993 0
-4993 4994 0
-4991 4993 -4994 0
-167 185 -4993 0
-167 185 -4996 0
167 -185 -4996 0
167 185 4996 0
-167 -185 4996 0
4993 -4995 0
-4995 4996 0
-4993 4995 -4996 0
-168 186 -4995 0
-168 186 -4998 0
168 -186 -4998 0
168 186 4998 0
-168 -186 4998 0
4995 -4997 0
-4997 4998 0
-4995 4997 -4998 0
-169 187 -4997 0
-169 187 -5000 0
169 -187 -5000 0
169 187 5000 0
-169 -187 5000 0
4997 -4999 0
-4999 5000 0
-4997 4999 -5000 0
-170 188 -4999 0
-170 188 -5002 0
170 -188 -5002 0
170 188 5002 0
-170 -188 5002 0
4999 -5001 0
-5001 5002 0
-4999 5001 -5002 0
-171 189 -5001 0
-171 189 -5004 0
171 -189 -5004 0
171 189 5004 0
-171 -189 5004 0
5001 -5003 0
-5003 5004 0
-5001 5003 -5004 0
-173 190 -5003 0
-173 190 -5006 0
173 -190 -5006 0
173 190 5006 0
-173 -190 5006 0
5003 -5005 0
-5005 5006 0
-5003 5005 -5006 0
-174 192 -5005 0
-174 192 -5008 0
174 -192 -5008 0
174 192 5008 0
-174 -192 5008 0
5005 -5007 0
-5007 5008 0
-5005 5007 -5008 0
-175 193 -5007 0
-175 193 -5010 0
175 -193 -5010 0
175 193 5010 0
-175 -193 5010 0
5007 -5009 0
-5009 5010 0
-5007 5009 -5010 0
-176 194 -5009 0
-176 194 -5012 0
176 -194 -5012 0
176 194 5012 0
-176 -194 5012 0
5009 -5011 0
-5011 5012 0
-5009 5011 -5012 0
-177 195 -5011 0
-177 195 -5014 0
177 -195 -5014 0
177 195 5014 0
-177 -195 5014 0
5011 -5013 0
-5013 5014 0
-5011 5013 -5014 0
-178 196 -5013 0
-178 196 -5016 0
178 -196 -5016 0
178 196 5016 0
-178 -196 5016 0
5013 -5015 0
-5015 5016 0
-5013 5015 -5016 0
-179 197 -5015 0
-179 197 -5018 0
179 -197 -5018 0
179 197 5018 0
-179 -197 5018 0
5015 -5017 0
-5017 5018 0
-5015 5017 -5018 0
-180 198 -5017 0
-180 198 -5020 0
180 -198 -5020 0
180 198 5020 0
-180 -198 5020 0
5017 -5019 0
-5019 5020 0
-5017 5019 -5020 0
-181 199 0
-181 199 -5021 0
181 -199 -5021 0
181 199 5021 0
-181 -199 5021 0
-182 200 -5021 0
-182 200 -5023 0
182 -200 -5023 0
182 200 5023 0
-182 -200 5023 0
5021 -5022 0
-5022 5023 0
-5021 5022 -5023 0
-183 201 -5022 0
-183 201 -5025 0
183 -201 -5025 0
183 201 5025 0
-183 -201 5025 0
5022 -5024 0
-5024 5025 0
-5022 5024 -5025 0
-184 202 -5024 0
-184 202 -5027 0
184 -202 -5027 0
184 202 5027 0
-184 -202 5027 0
5024 -5026 0
-5026 5027 0
-5024 5026 -5027 0
-185 203 -5026 0
-185 203 -5029 0
185 -203 -5029 0
185 203 5029 0
-185 -203 5029 0
5026 -5028 0
-5028 5029 0
-5026 5028 -5029 0
-186 204 -5028 0
-186 204 -5031 0
186 -204 -5031 0
186 204 5031 0
-186 -204 5031 0
5028 -5030 0
-5030 5031 0
-5028 5030 -5031 0
-187 205 -5030 0
-187 205 -5033 0
187 -205 -5033 0
187 205 5033 0
-187 -205 5033 0
5030 -5032 0
-5032 5033 0
-5030 5032 -5033 0
-188 206 -5032 0
-188 206 -5035 0
188 -206 -5035 0
188 206 5035 0
-188 -206 5035 0
5032 -5034 0
-5034 5035 0
-5032 5034 -5035 0
-189 207 -5034 0
-189 207 -5037 0
189 -207 -5037 0
189 207 5037 0
-189 -207 5037 0
5034 -5036 0
-5036 5037 0
-5034 5036 -5037 0
-190 208 -5036 0
-190 208 -5039 0
190 -208 -5039 0
190 208 5039 0
-190 -208 5039 0
5036 -5038 0
-5038 5039 0
-5036 5038 -5039 0
-192 209 -5038 0
-192 209 -5041 0
192 -209 -5041 0
192 209 5041 0
-192 -209 5041 0
5038 -5040 0
-5040 5041 0
-5038 5040 -5041 0
-193 211 -5040 0
-193 211 -5043 0
193 -211 -5043 0
193 211 5043 0
-193 -211 5043 0
5040 -5042 0
-5042 5043 0
-5040 5042 -5043 0
-194 212 -5042 0
-194 212 -5045 0
194 -212 -5045 0
194 212 5045 0
-194 -212 5045 0
5042 -5044 0
-5044 5045 0
-5042 5044 -5045 0
-195 213 -5044 0
-195 213 -5047 0
195 -213 -5047 0
195 213 5047 0
-195 -213 5047 0
5044 -5046 0
-5046 5047 0
-5044 5046 -5047 0
-196 214 -5046 0
-196 214 -5049 0
196 -214 -5049 0
196 214 5049 0
-196 -214 5049 0
5046 -5048 0
-5048 5049 0
-5046 5048 -5049 0
-197 215 -5048 0
-197 215 -5051 0
197 -215 -5051 0
197 215 5051 0
-197 -215 5051 0
5048 -5050 0
-5050 5051 0
-5048 5050 -5051 0
-198 216 -5050 0
-198 216 -5053 0
198 -216 -5053 0
198 216 5053 0
-198 -216 5053 0
5050 -5052 0
-5052 5053 0
-5050 5052 -5053 0
-199 217 0
-199 217 -5054 0
199 -217 -5054 0
199 217 5054 0
-199 -217 5054 0
-200 218 -5054 0
-200 218 -5056 0
200 -218 -5056 0
200 218 5056 0
-200 -218 5056 0
5054 -5055 0
-5055 5056 0
-5054 5055 -5056 0
-201 219 -5055 0
-201 219 -5058 0
201 -219 -5058 0
201 219 5058 0
-201 -219 5058 0
5055 -5057 0
-5057 5058 0
-5055 5057 -5058 0
-202 220 -5057 0
-202 220 -5060 0
202 -220 -5060 0
202 220 5060 0
-202 -220 5060 0
5057 -5059 0
-5059 5060 0
-5057 5059 -5060 0
-203 221 -5059 0
-203 221 -5062 0
203 -221 -5062 0
203 221 5062 0
-203 -221 5062 0
5059 -5061 0
-5061 5062 0
-5059 5061 -5062 0
-204 222 -5061 0
-204 222 -5064 0
204 -222 -5064 0
204 222 5064 0
-204 -222 5064 0
5061 -5063 0
-5063 5064 0
-5061 5063 -5064 0
-205 223 -5063 0
-205 223 -5066 0
205 -223 -5066 0
205 223 5066 0
-205 -223 5066 0
5063 -5065 0
-5065 5066 0
-5063 5065 -5066 0
-206 224 -5065 0
-206 224 -5068 0
206 -224 -5068 0
206 224 5068 0
-206 -224 5068 0
5065 -5067 0
-5067 5068 0
-5065 5067 -5068 0
-207 225 -5067 0
-207 225 -5070 0
207 -225 -5070 0
207 225 5070 0
-207 -225 5070 0
5067 -5069 0
-5069 5070 0
-5067 5069 -5070 0
-208 226 -5069 0
-208 226 -5072 0
208 -226 -5072 0
208 226 5072 0
-208 -226 5072 0
5069 -5071 0
-5071 5072 0
-5069 5071 -5072 0
-209 227 -5071 0
-209 227 -5074 0
209 -227 -5074 0
209 227 5074 0
-209 -227 5074 0
5071 -5073 0
-5073 5074 0
-5071 5073 -5074 0
-211 228 -5073 0
-211 228 -5076 0
211 -228 -5076 0
211 228 5076 0
-211 -228 5076 0
5073 -5075 0
-5075 5076 0
-5073 5075 -5076 0
-212 230 -5075 0
-212 230 -5078 0
212 -230 -5078 0
212 230 5078 0
-212 -230 5078 0
5075 -5077 0
-5077 5078 0
-5075 5077 -5078 0
-213 231 -5077 0
-213 231 -5080 0
213 -231 -5080 0
213 231 5080 0
-213 -231 5080 0
5077 -5079 0
-5079 5080 0
-5077 5079 -5080 0
-214 232 -5079 0
-214 232 -5082 0
214 -232 -5082 0
214 232 5082 0
-214 -232 5082 0
5079 -5081 0
-5081 5082 0
-5079 5081 -5082 0
-215 233 -5081 0
-215 233 -5084 0
215 -233 -5084 0
215 233 5084 0
-215 -233 5084 0
5081 -5083 0
-5083 5084 0
-5081 5083 -5084 0
-216 234 -5083 0
-216 234 -5086 0
216 -234 -5086 0
216 234 5086 0
-216 -234 5086 0
5083 -5085 0
-5085 5086 0
-5083 5085 -5086 0
-235 253 0
-235 253 -5087 0
235 -253 -5087 0
235 253 5087 0
-235 -253 5087 0
-236 254 -5087 0
-236 254 -5089 0
236 -254 -5089 0
236 254 5089 0
-236 -254 5089 0
5087 -5088 0
-5088 5089 0
-5087 5088 -5089 0
-237 255 -5088 0
-237 255 -5091 0
237 -255 -5091 0
237 255 5091 0
-237 -255 5091 0
5088 -5090 0
-5090 5091 0
-5088 5090 -5091 0
-238 256 -5090 0
-238 256 -5093 0
238 -256 -5093 0
238 256 5093 0
-238 -256 5093 0
5090 -5092 0
-5092 5093 0
-5090 5092 -5093 0
-239 257 -5092 0
-239 257 -5095 0
239 -257 -5095 0
239 257 5095 0
-239 -257 5095 0
5092 -5094 0
-5094 5095 0
-5092 5094 -5095 0
-240 258 -5094 0
-240 258 -5097 0
240 -258 -5097 0
240 258 5097 0
-240 -258 5097 0
5094 -5096 0
-5096 5097 0
-5094 5096 -5097 0
-241 259 -5096 0
-241 259 -5099 0
241 -259 -5099 0
241 259 5099 0
-241 -259 5099 0
5096 -5098 0
-5098 5099 0
-5096 5098 -5099 0
-242 260 -5098 0
-242 260 -5101 0
242 -260 -5101 0
242 260 5101 0
-242 -260 5101 0
5098 -5100 0
-5100 5101 0
-5098 5100 -5101 0
-243 261 -5100 0
-243 261 -5103 0
243 -261 -5103 0
243 261 5103 0
-243 -261 5103 0
5100 -5102 0
-5102 5103 0
-5100 5102 -5103 0
-244 262 -5102 0
-244 262 -5105 0
244 -262 -5105 0
244 262 5105 0
-244 -262 5105 0
5102 -5104 0
-5104 5105 0
-5102 5104 -5105 0
-245 263 -5104 0
-245 263 -5107 0
245 -263 -5107 0
245 263 5107 0
-245 -263 5107 0
5104 -5106 0
-5106 5107 0
-5104 5106 -5107 0
-246 264 -5106 0
-246 264 -5109 0
246 -264 -5109 0
246 264 5109 0
-246 -264 5109 0
5106 -5108 0
-5108 5109 0
-5106 5108 -5109 0
-247 265 -5108 0
-247 265 -5111 0
247 -265 -5111 0
247 265 5111 0
-247 -265 5111 0
5108 -5110 0
-5110 5111 0
-5108 5110 -5111 0
-249 266 -5110 0
-249 266 -5113 0
249 -266 -5113 0
249 266 5113 0
-249 -266 5113 0
5110 -5112 0
-5112 5113 0
-5110 5112 -5113 0
-250 268 -5112 0
-250 268 -5115 0
250 -268 -5115 0
250 268 5115 0
-250 -268 5115 0
5112 -5114 0
-5114 5115 0
-5112 5114 -5115 0
-251 269 -5114 0
-251 269 -5117 0
251 -269 -5117 0
251 269 5117 0
-251 -269 5117 0
5114 -5116 0
-5116 5117 0
-5114 5116 -5117 0
-252 270 -5116 0
-252 270 -5119 0
252 -270 -5119 0
252 270 5119 0
-252 -270 5119 0
5116 -5118 0
-5118 5119 0
-5116 5118 -5119 0
-253 271 0
-253 271 -5120 0
253 -271 -5120 0
253 271 5120 0
-253 -271 5120 0
-254 272 -5120 0
-254 272 -5122 0
254 -272 -5122 0
254 272 5122 0
-254 -272 5122 0
5120 -5121 0
-5121 5122 0
-5120 5121 -5122 0
-255 273 -5121 0
-255 273 -5124 0
255 -273 -5124 0
255 273 5124 0
-255 -273 5124 0
5121 -5123 0
-5123 5124 0
-5121 5123 -5124 0
-256 274 -5123 0
-256 274 -5126 0
256 -274 -5126 0
256 274 5126 0
-256 -274 5126 0
5123 -5125 0
-5125 5126 0
-5123 5125 -5126 0
-257 275 -5125 0
-257 275 -5128 0
257 -275 -5128 0
257 275 5128 0
-257 -275 5128 0
5125 -5127 0
-5127 5128 0
-5125 5127 -5128 0
-258 276 -5127 0
-258 276 -5130 0
258 -276 -5130 0
258 276 5130 0
-258 -276 5130 0
5127 -5129 0
-5129 5130 0
-5127 5129 -5130 0
-259 277 -5129 0
-259 277 -5132 0
259 -277 -5132 0
259 277 5132 0
-259 -277 5132 0
5129 -5131 0
-5131 5132 0
-5129 5131 -5132 0
-260 278 -5131 0
-260 278 -5134 0
260 -278 -5134 0
260 278 5134 0
-260 -278 5134 0
5131 -5133 0
-5133 5134 0
-5131 5133 -5134 0
-261 279 -5133 0
-261 279 -5136 0
261 -279 -5136 0
261 279 5136 0
-261 -279 5136 0
5133 -5135 0
-5135 5136 0
-5133 5135 -5136 0
-262 280 -5135 0
-262 280 -5138 0
262 -280 -5138 0
262 280 5138 0
-262 -280 5138 0
5135 -5137 0
-5137 5138 0
-5135 5137 -5138 0
-263 281 -5137 0
-263 281 -5140 0
263 -281 -5140 0
263 281 5140 0
-263 -281 5140 0
5137 -5139 0
-5139 5140 0
-5137 5139 -5140 0
-264 282 -5139 0
-264 282 -5142 0
264 -282 -5142 0
264 282 5142 0
-264 -282 5142 0
5139 -5141 0
-5141 5142 0
-5139 5141 -5142 0
-265 283 -5141 0
-265 283 -5144 0
265 -283 -5144 0
265 283 5144 0
-265 -283 5144 0
5141 -5143 0
-5143 5144 0
-5141 5143 -5144 0
-266 284 -5143 0
-266 284 -5146 0
266 -284 -5146 0
266 284 5146 0
-266 -284 5146 0
5143 -5145 0
-5145 5146 0
-5143 5145 -5146 0
-268 285 -5145 0
-268 285 -5148 0
268 -285 -5148 0
268 285 5148 0
-268 -285 5148 0
5145 -5147 0
-5147 5148 0
-5145 5147 -5148 0
-269 287 -5147 0
-269 287 -5150 0
269 -287 -5150 0
269 287 5150 0
-269 -287 5150 0
5147 -5149 0
-5149 5150 0
-5147 5149 -5150 0
-270 288 -5149 0
-270 288 -5152 0
270 -288 -5152 0
270 288 5152 0
-270 -288 5152 0
5149 -5151 0
-5151 5152 0
-5149 5151 -5152 0
-271 289 0
-271 289 -5153 0
271 -289 -5153 0
271 289 5153 0
-271 -289 5153 0
-272 290 -5153 0
-272 290 -5155 0
272 -290 -5155 0
272 290 5155 0
-272 -290 5155 0
5153 -5154 0
-5154 5155 0
-5153 5154 -5155 0
-273 291 -5154 0
-273 291 -5157 0
273 -291 -5157 0
273 291 5157 0
-273 -291 5157 0
5154 -5156 0
-5156 5157 0
-5154 5156 -5157 0
-274 292 -5156 0
-274 292 -5159 0
274 -292 -5159 0
274 292 5159 0
-274 -292 5159 0
5156 -5158 0
-5158 5159 0
-5156 5158 -5159 0
-275 293 -5158 0
-275 293 -5161 0
275 -293 -5161 0
275 293 5161 0
-275 -293 5161 0
5158 -5160 0
-5160 5161 0
-5158 5160 -5161 0
-276 294 -5160 0
-276 294 -5163 0
276 -294 -5163 0
276 294 5163 0
-276 -294 5163 0
5160 -5162 0
-5162 5163 0
-5160 5162 -5163 0
-277 295 -5162 0
-277 295 -5165 0
277 -295 -5165 0
277 295 5165 0
-277 -295 5165 0
5162 -5164 0
-5164 5165 0
-5162 5164 -5165 0
-278 296 -5164 0
-278 296 -5167 0
278 -296 -5167 0
278 296 5167 0
-278 -296 5167 0
5164 -5166 0
-5166 5167 0
-5164 5166 -5167 0
-279 297 -5166 0
-279 297 -5169 0
279 -297 -5169 0
279 297 5169 0
-279 -297 5169 0
5166 -5168 0
-5168 5169 0
-5166 5168 -5169 0
-280 298 -5168 0
-280 298 -5171 0
280 -298 -5171 0
280 298 5171 0
-280 -298 5171 0
5168 -5170 0
-5170 5171 0
-5168 5170 -5171 0
-281 299 -5170 0
-281 299 -5173 0
281 -299 -5173 0
281 299 5173 0
-281 -299 5173 0
5170 -5172 0
-5172 5173 0
-5170 5172 -5173 0
-282 300 -5172 0
-282 300 -5175 0
282 -300 -5175 0
282 300 5175 0
-282 -300 5175 0
5172 -5174 0
-5174 5175 0
-5172 5174 -5175 0
-283 301 -5174 0
-283 301 -5177 0
283 -301 -5177 0
283 301 5177 0
-283 -301 5177 0
5174 -5176 0
-5176 5177 0
-5174 5176 -5177 0
-284 302 -5176 0
-284 302 -5179 0
284 -302 -5179 0
284 302 5179 0
-284 -302 5179 0
5176 -5178 0
-5178 5179 0
-5176 5178 -5179 0
-285 303 -5178 0
-285 303 -5181 0
285 -303 -5181 0
285 303 5181 0
-285 -303 5181 0
5178 -5180 0
-5180 5181 0
-5178 5180 -5181 0
-287 304 -5180 0
-287 304 -5183 0
287 -304 -5183 0
287 304 5183 0
-287 -304 5183 0
5180 -5182 0
-5182 5183 0
-5180 5182 -5183 0
-288 306 -5182 0
-288 306 -5185 0
288 -306 -5185 0
288 306 5185 0
-288 -306 5185 0
5182 -5184 0
-5184 5185 0
-5182 5184 -5185 0
-289 307 0
-289 307 -5186 0
289 -307 -5186 0
289 307 5186 0
-289 -307 5186 0
-290 308 -5186 0
-290 308 -5188 0
290 -308 -5188 0
290 308 5188 0
-290 -308 5188 0
5186 -5187 0
-5187 5188 0
-5186 5187 -5188 0
-291 309 -5187 0
-291 309 -5190 0
291 -309 -5190 0
291 309 5190 0
-291 -309 5190 0
5187 -5189 0
-5189 5190 0
-5187 5189 -5190 0
-292 310 -5189 0
-292 310 -5192 0
292 -310 -5192 0
292 310 5192 0
-292 -310 5192 0
5189 -5191 0
-5191 5192 0
-5189 5191 -5192 0
-293 311 -5191 0
-293 311 -5194 0
293 -311 -5194 0
293 311 5194 0
-293 -311 5194 0
5191 -5193 0
-5193 5194 0
-5191 5193 -5194 0
-294 312 -5193 0
-294 312 -5196 0
294 -312 -5196 0
294 312 5196 0
-294 -312 5196 0
5193 -5195 0
-5195 5196 0
-5193 5195 -5196 0
-295 313 -5195 0
-295 313 -5198 0
295 -313 -5198 0
295 313 5198 0
-295 -313 5198 0
5195 -5197 0
-5197 5198 0
-5195 5197 -5198 0
-296 314 -5197 0
-296 314 -5200 0
296 -314 -5200 0
296 314 5200 0
-296 -314 5200 0
5197 -5199 0
-5199 5200 0
-5197 5199 -5200 0
-297 315 -5199 0
-297 315 -5202 0
297 -315 -5202 0
297 315 5202 0
-297 -315 5202 0
5199 -5201 0
-5201 5202 0
-5199 5201 -5202 0
-298 316 -5201 0
-298 316 -5204 0
298 -316 -5204 0
298 316 5204 0
-298 -316 5204 0
5201 -5203 0
-5203 5204 0
-5201 5203 -5204 0
-299 317 -5203 0
-299 317 -5206 0
299 -317 -5206 0
299 317 5206 0
-299 -317 5206 0
5203 -5205 0
-5205 5206 0
-5203 5205 -5206 0
-300 318 -5205 0
-300 318 -5208 0
300 -318 -5208 0
300 318 5208 0
-300 -318 5208 0
5205 -5207 0
-5207 5208 0
-5205 5207 -5208 0
-301 319 -5207 0
-301 319 -5210 0
301 -319 -5210 0
301 319 5210 0
-301 -319 5210 0
5207 -5209 0
-5209 5210 0
-5207 5209 -5210 0
-302 320 -5209 0
-302 320 -5212 0
302 -320 -5212 0
302 320 5212 0
-302 -320 5212 0
5209 -5211 0
-5211 5212 0
-5209 5211 -5212 0
-303 321 -5211 0
-303 321 -5214 0
303 -321 -5214 0
303 321 5214 0
-303 -321 5214 0
5211 -5213 0
-5213 5214 0
-5211 5213 -5214 0
-304 322 -5213 0
-304 322 -5216 0
304 -322 -5216 0
304 322 5216 0
-304 -322 5216 0
5213 -5215 0
-5215 5216 0
-5213 5215 -5216 0
-306 323 -5215 0
-306 323 -5218 0
306 -323 -5218 0
306 323 5218 0
-306 -323 5218 0
5215 -5217 0
-5217 5218 0
-5215 5217 -5218 0
