p cnf 8821 60
-33 -254 0
-34 -255 0
-237 -254 0
-238 -255 0
-339 -237 0
-340 -238 0
-373 -237 0
-374 -238 0
-390 -237 0
-391 -238 0
-305 -254 0
-306 -255 0
-577 -254 0
-578 -255 0
-254 -628 0
-629 -255 0
-441 -271 0
-442 -272 0
-271 -628 0
-272 -629 0
-322 -628 0
-323 -629 0
16 17 0
33 34 0
220 221 0
237 238 0
255 254 0
272 271 0
305 306 0
323 322 0
340 339 0
374 373 0
391 390 0
441 442 0
577 578 0
629 628 0
-16 -390 -4863 0
-17 -4863 -391 0
-4864 -577 -33 0
-4864 -578 -34 0
-4865 -373 -271 0
-4865 -374 -272 0
-4866 -339 -322 0
-4866 -340 -323 0
4863 4865 4864 4866 0
-220 -390 -5279 0
-221 -391 -5279 0
-5280 -577 -628 0
-5280 -578 -629 0
5279 5280 0
-8816 -16 -220 0
-8816 -17 -221 0
-8817 -628 -33 0
-34 -629 -8817 0
-8818 -441 -305 0
-8818 -442 -306 0
8816 8817 8818 0
-8819 -16 -628 0
-8819 -17 -629 0
8821 8820 8819 0
