p cnf 333 8822
-1 0
-14 0
-27 0
-40 0
-53 0
-66 0
-79 0
-92 0
-105 0
-118 0
-131 0
-144 0
-2 -13 0
-3 -25 0
-4 -37 0
-5 -49 0
-6 -61 0
-7 -73 0
-8 -85 0
-9 -97 0
-10 -109 0
-11 -121 0
-12 -133 0
-15 -26 0
-16 -38 0
-17 -50 0
-18 -62 0
-19 -74 0
-20 -86 0
-21 -98 0
-22 -110 0
-23 -122 0
-24 -134 0
-28 -39 0
-29 -51 0
-30 -63 0
-31 -75 0
-32 -87 0
-33 -99 0
-34 -111 0
-35 -123 0
-36 -135 0
-41 -52 0
-42 -64 0
-43 -76 0
-44 -88 0
-45 -100 0
-46 -112 0
-47 -124 0
-48 -136 0
-54 -65 0
-55 -77 0
-56 -89 0
-57 -101 0
-58 -113 0
-59 -125 0
-60 -137 0
-67 -78 0
-68 -90 0
-69 -102 0
-70 -114 0
-71 -126 0
-72 -138 0
-80 -91 0
-81 -103 0
-82 -115 0
-83 -127 0
-84 -139 0
-93 -104 0
-94 -116 0
-95 -128 0
-96 -140 0
-106 -117 0
-107 -129 0
-108 -141 0
-119 -130 0
-120 -142 0
-132 -143 0
-2 -15 -25 0
-3 -13 -26 0
-2 -16 -37 0
-4 -13 -38 0
-2 -17 -49 0
-5 -13 -50 0
-2 -18 -61 0
-6 -13 -62 0
-2 -19 -73 0
-7 -13 -74 0
-2 -20 -85 0
-8 -13 -86 0
-2 -21 -97 0
-9 -13 -98 0
-2 -22 -109 0
-10 -13 -110 0
-2 -23 -121 0
-11 -13 -122 0
-2 -24 -133 0
-12 -13 -134 0
-3 -28 -37 0
-4 -25 -39 0
-3 -29 -49 0
-5 -25 -51 0
-3 -30 -61 0
-6 -25 -63 0
-3 -31 -73 0
-7 -25 -75 0
-3 -32 -85 0
-8 -25 -87 0
-3 -33 -97 0
-9 -25 -99 0
-3 -34 -109 0
-10 -25 -111 0
-3 -35 -121 0
-11 -25 -123 0
-3 -36 -133 0
-12 -25 -135 0
-4 -41 -49 0
-5 -37 -52 0
-4 -42 -61 0
-6 -37 -64 0
-4 -43 -73 0
-7 -37 -76 0
-4 -44 -85 0
-8 -37 -88 0
-4 -45 -97 0
-9 -37 -100 0
-4 -46 -109 0
-10 -37 -112 0
-4 -47 -121 0
-11 -37 -124 0
-4 -48 -133 0
-12 -37 -136 0
-5 -54 -61 0
-6 -49 -65 0
-5 -55 -73 0
-7 -49 -77 0
-5 -56 -85 0
-8 -49 -89 0
-5 -57 -97 0
-9 -49 -101 0
-5 -58 -109 0
-10 -49 -113 0
-5 -59 -121 0
-11 -49 -125 0
-5 -60 -133 0
-12 -49 -137 0
-6 -67 -73 0
-7 -61 -78 0
-6 -68 -85 0
-8 -61 -90 0
-6 -69 -97 0
-9 -61 -102 0
-6 -70 -109 0
-10 -61 -114 0
-6 -71 -121 0
-11 -61 -126 0
-6 -72 -133 0
-12 -61 -138 0
-7 -80 -85 0
-8 -73 -91 0
-7 -81 -97 0
-9 -73 -103 0
-7 -82 -109 0
-10 -73 -115 0
-7 -83 -121 0
-11 -73 -127 0
-7 -84 -133 0
-12 -73 -139 0
-8 -93 -97 0
-9 -85 -104 0
-8 -94 -109 0
-10 -85 -116 0
-8 -95 -121 0
-11 -85 -128 0
-8 -96 -133 0
-12 -85 -140 0
-9 -106 -109 0
-10 -97 -117 0
-9 -107 -121 0
-11 -97 -129 0
-9 -108 -133 0
-12 -97 -141 0
-10 -119 -121 0
-11 -109 -130 0
-10 -120 -133 0
-12 -109 -142 0
-11 -132 -133 0
-12 -121 -143 0
-15 -28 -38 0
-16 -26 -39 0
-15 -29 -50 0
-17 -26 -51 0
-15 -30 -62 0
-18 -26 -63 0
-15 -31 -74 0
-19 -26 -75 0
-15 -32 -86 0
-20 -26 -87 0
-15 -33 -98 0
-21 -26 -99 0
-15 -34 -110 0
-22 -26 -111 0
-15 -35 -122 0
-23 -26 -123 0
-15 -36 -134 0
-24 -26 -135 0
-16 -41 -50 0
-17 -38 -52 0
-16 -42 -62 0
-18 -38 -64 0
-16 -43 -74 0
-19 -38 -76 0
-16 -44 -86 0
-20 -38 -88 0
-16 -45 -98 0
-21 -38 -100 0
-16 -46 -110 0
-22 -38 -112 0
-16 -47 -122 0
-23 -38 -124 0
-16 -48 -134 0
-24 -38 -136 0
-17 -54 -62 0
-18 -50 -65 0
-17 -55 -74 0
-19 -50 -77 0
-17 -56 -86 0
-20 -50 -89 0
-17 -57 -98 0
-21 -50 -101 0
-17 -58 -110 0
-22 -50 -113 0
-17 -59 -122 0
-23 -50 -125 0
-17 -60 -134 0
-24 -50 -137 0
-18 -67 -74 0
-19 -62 -78 0
-18 -68 -86 0
-20 -62 -90 0
-18 -69 -98 0
-21 -62 -102 0
-18 -70 -110 0
-22 -62 -114 0
-18 -71 -122 0
-23 -62 -126 0
-18 -72 -134 0
-24 -62 -138 0
-19 -80 -86 0
-20 -74 -91 0
-19 -81 -98 0
-21 -74 -103 0
-19 -82 -110 0
-22 -74 -115 0
-19 -83 -122 0
-23 -74 -127 0
-19 -84 -134 0
-24 -74 -139 0
-20 -93 -98 0
-21 -86 -104 0
-20 -94 -110 0
-22 -86 -116 0
-20 -95 -122 0
-23 -86 -128 0
-20 -96 -134 0
-24 -86 -140 0
-21 -106 -110 0
-22 -98 -117 0
-21 -107 -122 0
-23 -98 -129 0
-21 -108 -134 0
-24 -98 -141 0
-22 -119 -122 0
-23 -110 -130 0
-22 -120 -134 0
-24 -110 -142 0
-23 -132 -134 0
-24 -122 -143 0
-28 -41 -51 0
-29 -39 -52 0
-28 -42 -63 0
-30 -39 -64 0
-28 -43 -75 0
-31 -39 -76 0
-28 -44 -87 0
-32 -39 -88 0
-28 -45 -99 0
-33 -39 -100 0
-28 -46 -111 0
-34 -39 -112 0
-28 -47 -123 0
-35 -39 -124 0
-28 -48 -135 0
-36 -39 -136 0
-29 -54 -63 0
-30 -51 -65 0
-29 -55 -75 0
-31 -51 -77 0
-29 -56 -87 0
-32 -51 -89 0
-29 -57 -99 0
-33 -51 -101 0
-29 -58 -111 0
-34 -51 -113 0
-29 -59 -123 0
-35 -51 -125 0
-29 -60 -135 0
-36 -51 -137 0
-30 -67 -75 0
-31 -63 -78 0
-30 -68 -87 0
-32 -63 -90 0
-30 -69 -99 0
-33 -63 -102 0
-30 -70 -111 0
-34 -63 -114 0
-30 -71 -123 0
-35 -63 -126 0
-30 -72 -135 0
-36 -63 -138 0
-31 -80 -87 0
-32 -75 -91 0
-31 -81 -99 0
-33 -75 -103 0
-31 -82 -111 0
-34 -75 -115 0
-31 -83 -123 0
-35 -75 -127 0
-31 -84 -135 0
-36 -75 -139 0
-32 -93 -99 0
-33 -87 -104 0
-32 -94 -111 0
-34 -87 -116 0
-32 -95 -123 0
-35 -87 -128 0
-32 -96 -135 0
-36 -87 -140 0
-33 -106 -111 0
-34 -99 -117 0
-33 -107 -123 0
-35 -99 -129 0
-33 -108 -135 0
-36 -99 -141 0
-34 -119 -123 0
-35 -111 -130 0
-34 -120 -135 0
-36 -111 -142 0
-35 -132 -135 0
-36 -123 -143 0
-41 -54 -64 0
-42 -52 -65 0
-41 -55 -76 0
-43 -52 -77 0
-41 -56 -88 0
-44 -52 -89 0
-41 -57 -100 0
-45 -52 -101 0
-41 -58 -112 0
-46 -52 -113 0
-41 -59 -124 0
-47 -52 -125 0
-41 -60 -136 0
-48 -52 -137 0
-42 -67 -76 0
-43 -64 -78 0
-42 -68 -88 0
-44 -64 -90 0
-42 -69 -100 0
-45 -64 -102 0
-42 -70 -112 0
-46 -64 -114 0
-42 -71 -124 0
-47 -64 -126 0
-42 -72 -136 0
-48 -64 -138 0
-43 -80 -88 0
-44 -76 -91 0
-43 -81 -100 0
-45 -76 -103 0
-43 -82 -112 0
-46 -76 -115 0
-43 -83 -124 0
-47 -76 -127 0
-43 -84 -136 0
-48 -76 -139 0
-44 -93 -100 0
-45 -88 -104 0
-44 -94 -112 0
-46 -88 -116 0
-44 -95 -124 0
-47 -88 -128 0
-44 -96 -136 0
-48 -88 -140 0
-45 -106 -112 0
-46 -100 -117 0
-45 -107 -124 0
-47 -100 -129 0
-45 -108 -136 0
-48 -100 -141 0
-46 -119 -124 0
-47 -112 -130 0
-46 -120 -136 0
-48 -112 -142 0
-47 -132 -136 0
-48 -124 -143 0
-54 -67 -77 0
-55 -65 -78 0
-54 -68 -89 0
-56 -65 -90 0
-54 -69 -101 0
-57 -65 -102 0
-54 -70 -113 0
-58 -65 -114 0
-54 -71 -125 0
-59 -65 -126 0
-54 -72 -137 0
-60 -65 -138 0
-55 -80 -89 0
-56 -77 -91 0
-55 -81 -101 0
-57 -77 -103 0
-55 -82 -113 0
-58 -77 -115 0
-55 -83 -125 0
-59 -77 -127 0
-55 -84 -137 0
-60 -77 -139 0
-56 -93 -101 0
-57 -89 -104 0
-56 -94 -113 0
-58 -89 -116 0
-56 -95 -125 0
-59 -89 -128 0
-56 -96 -137 0
-60 -89 -140 0
-57 -106 -113 0
-58 -101 -117 0
-57 -107 -125 0
-59 -101 -129 0
-57 -108 -137 0
-60 -101 -141 0
-58 -119 -125 0
-59 -113 -130 0
-58 -120 -137 0
-60 -113 -142 0
-59 -132 -137 0
-60 -125 -143 0
-67 -80 -90 0
-68 -78 -91 0
-67 -81 -102 0
-69 -78 -103 0
-67 -82 -114 0
-70 -78 -115 0
-67 -83 -126 0
-71 -78 -127 0
-67 -84 -138 0
-72 -78 -139 0
-68 -93 -102 0
-69 -90 -104 0
-68 -94 -114 0
-70 -90 -116 0
-68 -95 -126 0
-71 -90 -128 0
-68 -96 -138 0
-72 -90 -140 0
-69 -106 -114 0
-70 -102 -117 0
-69 -107 -126 0
-71 -102 -129 0
-69 -108 -138 0
-72 -102 -141 0
-70 -119 -126 0
-71 -114 -130 0
-70 -120 -138 0
-72 -114 -142 0
-71 -132 -138 0
-72 -126 -143 0
-80 -93 -103 0
-81 -91 -104 0
-80 -94 -115 0
-82 -91 -116 0
-80 -95 -127 0
-83 -91 -128 0
-80 -96 -139 0
-84 -91 -140 0
-81 -106 -115 0
-82 -103 -117 0
-81 -107 -127 0
-83 -103 -129 0
-81 -108 -139 0
-84 -103 -141 0
-82 -119 -127 0
-83 -115 -130 0
-82 -120 -139 0
-84 -115 -142 0
-83 -132 -139 0
-84 -127 -143 0
-93 -106 -116 0
-94 -104 -117 0
-93 -107 -128 0
-95 -104 -129 0
-93 -108 -140 0
-96 -104 -141 0
-94 -119 -128 0
-95 -116 -130 0
-94 -120 -140 0
-96 -116 -142 0
-95 -132 -140 0
-96 -128 -143 0
-106 -119 -129 0
-107 -117 -130 0
-106 -120 -141 0
-108 -117 -142 0
-107 -132 -141 0
-108 -129 -143 0
-119 -132 -142 0
-120 -130 -143 0
2 0
-13 0
3 0
-25 0
4 0
-37 0
5 0
-49 0
-6 0
-7 0
-8 0
-9 0
-10 0
-11 0
-12 0
2 3 4 5 6 7 8 9 0
2 3 4 5 6 7 8 10 0
2 3 4 5 6 7 8 11 0
2 3 4 5 6 7 8 12 0
2 3 4 5 6 7 9 10 0
2 3 4 5 6 7 9 11 0
2 3 4 5 6 7 9 12 0
2 3 4 5 6 7 10 11 0
2 3 4 5 6 7 10 12 0
2 3 4 5 6 7 11 12 0
2 3 4 5 6 8 9 10 0
2 3 4 5 6 8 9 11 0
2 3 4 5 6 8 9 12 0
2 3 4 5 6 8 10 11 0
2 3 4 5 6 8 10 12 0
2 3 4 5 6 8 11 12 0
2 3 4 5 6 9 10 11 0
2 3 4 5 6 9 10 12 0
2 3 4 5 6 9 11 12 0
2 3 4 5 6 10 11 12 0
2 3 4 5 7 8 9 10 0
2 3 4 5 7 8 9 11 0
2 3 4 5 7 8 9 12 0
2 3 4 5 7 8 10 11 0
2 3 4 5 7 8 10 12 0
2 3 4 5 7 8 11 12 0
2 3 4 5 7 9 10 11 0
2 3 4 5 7 9 10 12 0
2 3 4 5 7 9 11 12 0
2 3 4 5 7 10 11 12 0
2 3 4 5 8 9 10 11 0
2 3 4 5 8 9 10 12 0
2 3 4 5 8 9 11 12 0
2 3 4 5 8 10 11 12 0
2 3 4 5 9 10 11 12 0
2 3 4 6 7 8 9 10 0
2 3 4 6 7 8 9 11 0
2 3 4 6 7 8 9 12 0
2 3 4 6 7 8 10 11 0
2 3 4 6 7 8 10 12 0
2 3 4 6 7 8 11 12 0
2 3 4 6 7 9 10 11 0
2 3 4 6 7 9 10 12 0
2 3 4 6 7 9 11 12 0
2 3 4 6 7 10 11 12 0
2 3 4 6 8 9 10 11 0
2 3 4 6 8 9 10 12 0
2 3 4 6 8 9 11 12 0
2 3 4 6 8 10 11 12 0
2 3 4 6 9 10 11 12 0
2 3 4 7 8 9 10 11 0
2 3 4 7 8 9 10 12 0
2 3 4 7 8 9 11 12 0
2 3 4 7 8 10 11 12 0
2 3 4 7 9 10 11 12 0
2 3 4 8 9 10 11 12 0
2 3 5 6 7 8 9 10 0
2 3 5 6 7 8 9 11 0
2 3 5 6 7 8 9 12 0
2 3 5 6 7 8 10 11 0
2 3 5 6 7 8 10 12 0
2 3 5 6 7 8 11 12 0
2 3 5 6 7 9 10 11 0
2 3 5 6 7 9 10 12 0
2 3 5 6 7 9 11 12 0
2 3 5 6 7 10 11 12 0
2 3 5 6 8 9 10 11 0
2 3 5 6 8 9 10 12 0
2 3 5 6 8 9 11 12 0
2 3 5 6 8 10 11 12 0
2 3 5 6 9 10 11 12 0
2 3 5 7 8 9 10 11 0
2 3 5 7 8 9 10 12 0
2 3 5 7 8 9 11 12 0
2 3 5 7 8 10 11 12 0
2 3 5 7 9 10 11 12 0
2 3 5 8 9 10 11 12 0
2 3 6 7 8 9 10 11 0
2 3 6 7 8 9 10 12 0
2 3 6 7 8 9 11 12 0
2 3 6 7 8 10 11 12 0
2 3 6 7 9 10 11 12 0
2 3 6 8 9 10 11 12 0
2 3 7 8 9 10 11 12 0
2 4 5 6 7 8 9 10 0
2 4 5 6 7 8 9 11 0
2 4 5 6 7 8 9 12 0
2 4 5 6 7 8 10 11 0
2 4 5 6 7 8 10 12 0
2 4 5 6 7 8 11 12 0
2 4 5 6 7 9 10 11 0
2 4 5 6 7 9 10 12 0
2 4 5 6 7 9 11 12 0
2 4 5 6 7 10 11 12 0
2 4 5 6 8 9 10 11 0
2 4 5 6 8 9 10 12 0
2 4 5 6 8 9 11 12 0
2 4 5 6 8 10 11 12 0
2 4 5 6 9 10 11 12 0
2 4 5 7 8 9 10 11 0
2 4 5 7 8 9 10 12 0
2 4 5 7 8 9 11 12 0
2 4 5 7 8 10 11 12 0
2 4 5 7 9 10 11 12 0
2 4 5 8 9 10 11 12 0
2 4 6 7 8 9 10 11 0
2 4 6 7 8 9 10 12 0
2 4 6 7 8 9 11 12 0
2 4 6 7 8 10 11 12 0
2 4 6 7 9 10 11 12 0
2 4 6 8 9 10 11 12 0
2 4 7 8 9 10 11 12 0
2 5 6 7 8 9 10 11 0
2 5 6 7 8 9 10 12 0
2 5 6 7 8 9 11 12 0
2 5 6 7 8 10 11 12 0
2 5 6 7 9 10 11 12 0
2 5 6 8 9 10 11 12 0
2 5 7 8 9 10 11 12 0
2 6 7 8 9 10 11 12 0
3 4 5 6 7 8 9 10 0
3 4 5 6 7 8 9 11 0
3 4 5 6 7 8 9 12 0
3 4 5 6 7 8 10 11 0
3 4 5 6 7 8 10 12 0
3 4 5 6 7 8 11 12 0
3 4 5 6 7 9 10 11 0
3 4 5 6 7 9 10 12 0
3 4 5 6 7 9 11 12 0
3 4 5 6 7 10 11 12 0
3 4 5 6 8 9 10 11 0
3 4 5 6 8 9 10 12 0
3 4 5 6 8 9 11 12 0
3 4 5 6 8 10 11 12 0
3 4 5 6 9 10 11 12 0
3 4 5 7 8 9 10 11 0
3 4 5 7 8 9 10 12 0
3 4 5 7 8 9 11 12 0
3 4 5 7 8 10 11 12 0
3 4 5 7 9 10 11 12 0
3 4 5 8 9 10 11 12 0
3 4 6 7 8 9 10 11 0
3 4 6 7 8 9 10 12 0
3 4 6 7 8 9 11 12 0
3 4 6 7 8 10 11 12 0
3 4 6 7 9 10 11 12 0
3 4 6 8 9 10 11 12 0
3 4 7 8 9 10 11 12 0
3 5 6 7 8 9 10 11 0
3 5 6 7 8 9 10 12 0
3 5 6 7 8 9 11 12 0
3 5 6 7 8 10 11 12 0
3 5 6 7 9 10 11 12 0
3 5 6 8 9 10 11 12 0
3 5 7 8 9 10 11 12 0
3 6 7 8 9 10 11 12 0
4 5 6 7 8 9 10 11 0
4 5 6 7 8 9 10 12 0
4 5 6 7 8 9 11 12 0
4 5 6 7 8 10 11 12 0
4 5 6 7 9 10 11 12 0
4 5 6 8 9 10 11 12 0
4 5 7 8 9 10 11 12 0
4 6 7 8 9 10 11 12 0
5 6 7 8 9 10 11 12 0
-2 -3 -4 -5 -6 0
-2 -3 -4 -5 -7 0
-2 -3 -4 -5 -8 0
-2 -3 -4 -5 -9 0
-2 -3 -4 -5 -10 0
-2 -3 -4 -5 -11 0
-2 -3 -4 -5 -12 0
-2 -3 -4 -6 -7 0
-2 -3 -4 -6 -8 0
-2 -3 -4 -6 -9 0
-2 -3 -4 -6 -10 0
-2 -3 -4 -6 -11 0
-2 -3 -4 -6 -12 0
-2 -3 -4 -7 -8 0
-2 -3 -4 -7 -9 0
-2 -3 -4 -7 -10 0
-2 -3 -4 -7 -11 0
-2 -3 -4 -7 -12 0
-2 -3 -4 -8 -9 0
-2 -3 -4 -8 -10 0
-2 -3 -4 -8 -11 0
-2 -3 -4 -8 -12 0
-2 -3 -4 -9 -10 0
-2 -3 -4 -9 -11 0
-2 -3 -4 -9 -12 0
-2 -3 -4 -10 -11 0
-2 -3 -4 -10 -12 0
-2 -3 -4 -11 -12 0
-2 -3 -5 -6 -7 0
-2 -3 -5 -6 -8 0
-2 -3 -5 -6 -9 0
-2 -3 -5 -6 -10 0
-2 -3 -5 -6 -11 0
-2 -3 -5 -6 -12 0
-2 -3 -5 -7 -8 0
-2 -3 -5 -7 -9 0
-2 -3 -5 -7 -10 0
-2 -3 -5 -7 -11 0
-2 -3 -5 -7 -12 0
-2 -3 -5 -8 -9 0
-2 -3 -5 -8 -10 0
-2 -3 -5 -8 -11 0
-2 -3 -5 -8 -12 0
-2 -3 -5 -9 -10 0
-2 -3 -5 -9 -11 0
-2 -3 -5 -9 -12 0
-2 -3 -5 -10 -11 0
-2 -3 -5 -10 -12 0
-2 -3 -5 -11 -12 0
-2 -3 -6 -7 -8 0
-2 -3 -6 -7 -9 0
-2 -3 -6 -7 -10 0
-2 -3 -6 -7 -11 0
-2 -3 -6 -7 -12 0
-2 -3 -6 -8 -9 0
-2 -3 -6 -8 -10 0
-2 -3 -6 -8 -11 0
-2 -3 -6 -8 -12 0
-2 -3 -6 -9 -10 0
-2 -3 -6 -9 -11 0
-2 -3 -6 -9 -12 0
-2 -3 -6 -10 -11 0
-2 -3 -6 -10 -12 0
-2 -3 -6 -11 -12 0
-2 -3 -7 -8 -9 0
-2 -3 -7 -8 -10 0
-2 -3 -7 -8 -11 0
-2 -3 -7 -8 -12 0
-2 -3 -7 -9 -10 0
-2 -3 -7 -9 -11 0
-2 -3 -7 -9 -12 0
-2 -3 -7 -10 -11 0
-2 -3 -7 -10 -12 0
-2 -3 -7 -11 -12 0
-2 -3 -8 -9 -10 0
-2 -3 -8 -9 -11 0
-2 -3 -8 -9 -12 0
-2 -3 -8 -10 -11 0
-2 -3 -8 -10 -12 0
-2 -3 -8 -11 -12 0
-2 -3 -9 -10 -11 0
-2 -3 -9 -10 -12 0
-2 -3 -9 -11 -12 0
-2 -3 -10 -11 -12 0
-2 -4 -5 -6 -7 0
-2 -4 -5 -6 -8 0
-2 -4 -5 -6 -9 0
-2 -4 -5 -6 -10 0
-2 -4 -5 -6 -11 0
-2 -4 -5 -6 -12 0
-2 -4 -5 -7 -8 0
-2 -4 -5 -7 -9 0
-2 -4 -5 -7 -10 0
-2 -4 -5 -7 -11 0
-2 -4 -5 -7 -12 0
-2 -4 -5 -8 -9 0
-2 -4 -5 -8 -10 0
-2 -4 -5 -8 -11 0
-2 -4 -5 -8 -12 0
-2 -4 -5 -9 -10 0
-2 -4 -5 -9 -11 0
-2 -4 -5 -9 -12 0
-2 -4 -5 -10 -11 0
-2 -4 -5 -10 -12 0
-2 -4 -5 -11 -12 0
-2 -4 -6 -7 -8 0
-2 -4 -6 -7 -9 0
-2 -4 -6 -7 -10 0
-2 -4 -6 -7 -11 0
-2 -4 -6 -7 -12 0
-2 -4 -6 -8 -9 0
-2 -4 -6 -8 -10 0
-2 -4 -6 -8 -11 0
-2 -4 -6 -8 -12 0
-2 -4 -6 -9 -10 0
-2 -4 -6 -9 -11 0
-2 -4 -6 -9 -12 0
-2 -4 -6 -10 -11 0
-2 -4 -6 -10 -12 0
-2 -4 -6 -11 -12 0
-2 -4 -7 -8 -9 0
-2 -4 -7 -8 -10 0
-2 -4 -7 -8 -11 0
-2 -4 -7 -8 -12 0
-2 -4 -7 -9 -10 0
-2 -4 -7 -9 -11 0
-2 -4 -7 -9 -12 0
-2 -4 -7 -10 -11 0
-2 -4 -7 -10 -12 0
-2 -4 -7 -11 -12 0
-2 -4 -8 -9 -10 0
-2 -4 -8 -9 -11 0
-2 -4 -8 -9 -12 0
-2 -4 -8 -10 -11 0
-2 -4 -8 -10 -12 0
-2 -4 -8 -11 -12 0
-2 -4 -9 -10 -11 0
-2 -4 -9 -10 -12 0
-2 -4 -9 -11 -12 0
-2 -4 -10 -11 -12 0
-2 -5 -6 -7 -8 0
-2 -5 -6 -7 -9 0
-2 -5 -6 -7 -10 0
-2 -5 -6 -7 -11 0
-2 -5 -6 -7 -12 0
-2 -5 -6 -8 -9 0
-2 -5 -6 -8 -10 0
-2 -5 -6 -8 -11 0
-2 -5 -6 -8 -12 0
-2 -5 -6 -9 -10 0
-2 -5 -6 -9 -11 0
-2 -5 -6 -9 -12 0
-2 -5 -6 -10 -11 0
-2 -5 -6 -10 -12 0
-2 -5 -6 -11 -12 0
-2 -5 -7 -8 -9 0
-2 -5 -7 -8 -10 0
-2 -5 -7 -8 -11 0
-2 -5 -7 -8 -12 0
-2 -5 -7 -9 -10 0
-2 -5 -7 -9 -11 0
-2 -5 -7 -9 -12 0
-2 -5 -7 -10 -11 0
-2 -5 -7 -10 -12 0
-2 -5 -7 -11 -12 0
-2 -5 -8 -9 -10 0
-2 -5 -8 -9 -11 0
-2 -5 -8 -9 -12 0
-2 -5 -8 -10 -11 0
-2 -5 -8 -10 -12 0
-2 -5 -8 -11 -12 0
-2 -5 -9 -10 -11 0
-2 -5 -9 -10 -12 0
-2 -5 -9 -11 -12 0
-2 -5 -10 -11 -12 0
-2 -6 -7 -8 -9 0
-2 -6 -7 -8 -10 0
-2 -6 -7 -8 -11 0
-2 -6 -7 -8 -12 0
-2 -6 -7 -9 -10 0
-2 -6 -7 -9 -11 0
-2 -6 -7 -9 -12 0
-2 -6 -7 -10 -11 0
-2 -6 -7 -10 -12 0
-2 -6 -7 -11 -12 0
-2 -6 -8 -9 -10 0
-2 -6 -8 -9 -11 0
-2 -6 -8 -9 -12 0
-2 -6 -8 -10 -11 0
-2 -6 -8 -10 -12 0
-2 -6 -8 -11 -12 0
-2 -6 -9 -10 -11 0
-2 -6 -9 -10 -12 0
-2 -6 -9 -11 -12 0
-2 -6 -10 -11 -12 0
-2 -7 -8 -9 -10 0
-2 -7 -8 -9 -11 0
-2 -7 -8 -9 -12 0
-2 -7 -8 -10 -11 0
-2 -7 -8 -10 -12 0
-2 -7 -8 -11 -12 0
-2 -7 -9 -10 -11 0
-2 -7 -9 -10 -12 0
-2 -7 -9 -11 -12 0
-2 -7 -10 -11 -12 0
-2 -8 -9 -10 -11 0
-2 -8 -9 -10 -12 0
-2 -8 -9 -11 -12 0
-2 -8 -10 -11 -12 0
-2 -9 -10 -11 -12 0
-3 -4 -5 -6 -7 0
-3 -4 -5 -6 -8 0
-3 -4 -5 -6 -9 0
-3 -4 -5 -6 -10 0
-3 -4 -5 -6 -11 0
-3 -4 -5 -6 -12 0
-3 -4 -5 -7 -8 0
-3 -4 -5 -7 -9 0
-3 -4 -5 -7 -10 0
-3 -4 -5 -7 -11 0
-3 -4 -5 -7 -12 0
-3 -4 -5 -8 -9 0
-3 -4 -5 -8 -10 0
-3 -4 -5 -8 -11 0
-3 -4 -5 -8 -12 0
-3 -4 -5 -9 -10 0
-3 -4 -5 -9 -11 0
-3 -4 -5 -9 -12 0
-3 -4 -5 -10 -11 0
-3 -4 -5 -10 -12 0
-3 -4 -5 -11 -12 0
-3 -4 -6 -7 -8 0
-3 -4 -6 -7 -9 0
-3 -4 -6 -7 -10 0
-3 -4 -6 -7 -11 0
-3 -4 -6 -7 -12 0
-3 -4 -6 -8 -9 0
-3 -4 -6 -8 -10 0
-3 -4 -6 -8 -11 0
-3 -4 -6 -8 -12 0
-3 -4 -6 -9 -10 0
-3 -4 -6 -9 -11 0
-3 -4 -6 -9 -12 0
-3 -4 -6 -10 -11 0
-3 -4 -6 -10 -12 0
-3 -4 -6 -11 -12 0
-3 -4 -7 -8 -9 0
-3 -4 -7 -8 -10 0
-3 -4 -7 -8 -11 0
-3 -4 -7 -8 -12 0
-3 -4 -7 -9 -10 0
-3 -4 -7 -9 -11 0
-3 -4 -7 -9 -12 0
-3 -4 -7 -10 -11 0
-3 -4 -7 -10 -12 0
-3 -4 -7 -11 -12 0
-3 -4 -8 -9 -10 0
-3 -4 -8 -9 -11 0
-3 -4 -8 -9 -12 0
-3 -4 -8 -10 -11 0
-3 -4 -8 -10 -12 0
-3 -4 -8 -11 -12 0
-3 -4 -9 -10 -11 0
-3 -4 -9 -10 -12 0
-3 -4 -9 -11 -12 0
-3 -4 -10 -11 -12 0
-3 -5 -6 -7 -8 0
-3 -5 -6 -7 -9 0
-3 -5 -6 -7 -10 0
-3 -5 -6 -7 -11 0
-3 -5 -6 -7 -12 0
-3 -5 -6 -8 -9 0
-3 -5 -6 -8 -10 0
-3 -5 -6 -8 -11 0
-3 -5 -6 -8 -12 0
-3 -5 -6 -9 -10 0
-3 -5 -6 -9 -11 0
-3 -5 -6 -9 -12 0
-3 -5 -6 -10 -11 0
-3 -5 -6 -10 -12 0
-3 -5 -6 -11 -12 0
-3 -5 -7 -8 -9 0
-3 -5 -7 -8 -10 0
-3 -5 -7 -8 -11 0
-3 -5 -7 -8 -12 0
-3 -5 -7 -9 -10 0
-3 -5 -7 -9 -11 0
-3 -5 -7 -9 -12 0
-3 -5 -7 -10 -11 0
-3 -5 -7 -10 -12 0
-3 -5 -7 -11 -12 0
-3 -5 -8 -9 -10 0
-3 -5 -8 -9 -11 0
-3 -5 -8 -9 -12 0
-3 -5 -8 -10 -11 0
-3 -5 -8 -10 -12 0
-3 -5 -8 -11 -12 0
-3 -5 -9 -10 -11 0
-3 -5 -9 -10 -12 0
-3 -5 -9 -11 -12 0
-3 -5 -10 -11 -12 0
-3 -6 -7 -8 -9 0
-3 -6 -7 -8 -10 0
-3 -6 -7 -8 -11 0
-3 -6 -7 -8 -12 0
-3 -6 -7 -9 -10 0
-3 -6 -7 -9 -11 0
-3 -6 -7 -9 -12 0
-3 -6 -7 -10 -11 0
-3 -6 -7 -10 -12 0
-3 -6 -7 -11 -12 0
-3 -6 -8 -9 -10 0
-3 -6 -8 -9 -11 0
-3 -6 -8 -9 -12 0
-3 -6 -8 -10 -11 0
-3 -6 -8 -10 -12 0
-3 -6 -8 -11 -12 0
-3 -6 -9 -10 -11 0
-3 -6 -9 -10 -12 0
-3 -6 -9 -11 -12 0
-3 -6 -10 -11 -12 0
-3 -7 -8 -9 -10 0
-3 -7 -8 -9 -11 0
-3 -7 -8 -9 -12 0
-3 -7 -8 -10 -11 0
-3 -7 -8 -10 -12 0
-3 -7 -8 -11 -12 0
-3 -7 -9 -10 -11 0
-3 -7 -9 -10 -12 0
-3 -7 -9 -11 -12 0
-3 -7 -10 -11 -12 0
-3 -8 -9 -10 -11 0
-3 -8 -9 -10 -12 0
-3 -8 -9 -11 -12 0
-3 -8 -10 -11 -12 0
-3 -9 -10 -11 -12 0
-4 -5 -6 -7 -8 0
-4 -5 -6 -7 -9 0
-4 -5 -6 -7 -10 0
-4 -5 -6 -7 -11 0
-4 -5 -6 -7 -12 0
-4 -5 -6 -8 -9 0
-4 -5 -6 -8 -10 0
-4 -5 -6 -8 -11 0
-4 -5 -6 -8 -12 0
-4 -5 -6 -9 -10 0
-4 -5 -6 -9 -11 0
-4 -5 -6 -9 -12 0
-4 -5 -6 -10 -11 0
-4 -5 -6 -10 -12 0
-4 -5 -6 -11 -12 0
-4 -5 -7 -8 -9 0
-4 -5 -7 -8 -10 0
-4 -5 -7 -8 -11 0
-4 -5 -7 -8 -12 0
-4 -5 -7 -9 -10 0
-4 -5 -7 -9 -11 0
-4 -5 -7 -9 -12 0
-4 -5 -7 -10 -11 0
-4 -5 -7 -10 -12 0
-4 -5 -7 -11 -12 0
-4 -5 -8 -9 -10 0
-4 -5 -8 -9 -11 0
-4 -5 -8 -9 -12 0
-4 -5 -8 -10 -11 0
-4 -5 -8 -10 -12 0
-4 -5 -8 -11 -12 0
-4 -5 -9 -10 -11 0
-4 -5 -9 -10 -12 0
-4 -5 -9 -11 -12 0
-4 -5 -10 -11 -12 0
-4 -6 -7 -8 -9 0
-4 -6 -7 -8 -10 0
-4 -6 -7 -8 -11 0
-4 -6 -7 -8 -12 0
-4 -6 -7 -9 -10 0
-4 -6 -7 -9 -11 0
-4 -6 -7 -9 -12 0
-4 -6 -7 -10 -11 0
-4 -6 -7 -10 -12 0
-4 -6 -7 -11 -12 0
-4 -6 -8 -9 -10 0
-4 -6 -8 -9 -11 0
-4 -6 -8 -9 -12 0
-4 -6 -8 -10 -11 0
-4 -6 -8 -10 -12 0
-4 -6 -8 -11 -12 0
-4 -6 -9 -10 -11 0
-4 -6 -9 -10 -12 0
-4 -6 -9 -11 -12 0
-4 -6 -10 -11 -12 0
-4 -7 -8 -9 -10 0
-4 -7 -8 -9 -11 0
-4 -7 -8 -9 -12 0
-4 -7 -8 -10 -11 0
-4 -7 -8 -10 -12 0
-4 -7 -8 -11 -12 0
-4 -7 -9 -10 -11 0
-4 -7 -9 -10 -12 0
-4 -7 -9 -11 -12 0
-4 -7 -10 -11 -12 0
-4 -8 -9 -10 -11 0
-4 -8 -9 -10 -12 0
-4 -8 -9 -11 -12 0
-4 -8 -10 -11 -12 0
-4 -9 -10 -11 -12 0
-5 -6 -7 -8 -9 0
-5 -6 -7 -8 -10 0
-5 -6 -7 -8 -11 0
-5 -6 -7 -8 -12 0
-5 -6 -7 -9 -10 0
-5 -6 -7 -9 -11 0
-5 -6 -7 -9 -12 0
-5 -6 -7 -10 -11 0
-5 -6 -7 -10 -12 0
-5 -6 -7 -11 -12 0
-5 -6 -8 -9 -10 0
-5 -6 -8 -9 -11 0
-5 -6 -8 -9 -12 0
-5 -6 -8 -10 -11 0
-5 -6 -8 -10 -12 0
-5 -6 -8 -11 -12 0
-5 -6 -9 -10 -11 0
-5 -6 -9 -10 -12 0
-5 -6 -9 -11 -12 0
-5 -6 -10 -11 -12 0
-5 -7 -8 -9 -10 0
-5 -7 -8 -9 -11 0
-5 -7 -8 -9 -12 0
-5 -7 -8 -10 -11 0
-5 -7 -8 -10 -12 0
-5 -7 -8 -11 -12 0
-5 -7 -9 -10 -11 0
-5 -7 -9 -10 -12 0
-5 -7 -9 -11 -12 0
-5 -7 -10 -11 -12 0
-5 -8 -9 -10 -11 0
-5 -8 -9 -10 -12 0
-5 -8 -9 -11 -12 0
-5 -8 -10 -11 -12 0
-5 -9 -10 -11 -12 0
-6 -7 -8 -9 -10 0
-6 -7 -8 -9 -11 0
-6 -7 -8 -9 -12 0
-6 -7 -8 -10 -11 0
-6 -7 -8 -10 -12 0
-6 -7 -8 -11 -12 0
-6 -7 -9 -10 -11 0
-6 -7 -9 -10 -12 0
-6 -7 -9 -11 -12 0
-6 -7 -10 -11 -12 0
-6 -8 -9 -10 -11 0
-6 -8 -9 -10 -12 0
-6 -8 -9 -11 -12 0
-6 -8 -10 -11 -12 0
-6 -9 -10 -11 -12 0
-7 -8 -9 -10 -11 0
-7 -8 -9 -10 -12 0
-7 -8 -9 -11 -12 0
-7 -8 -10 -11 -12 0
-7 -9 -10 -11 -12 0
-8 -9 -10 -11 -12 0
13 15 16 17 18 19 20 21 0
13 15 16 17 18 19 20 22 0
13 15 16 17 18 19 20 23 0
13 15 16 17 18 19 20 24 0
13 15 16 17 18 19 21 22 0
13 15 16 17 18 19 21 23 0
13 15 16 17 18 19 21 24 0
13 15 16 17 18 19 22 23 0
13 15 16 17 18 19 22 24 0
13 15 16 17 18 19 23 24 0
13 15 16 17 18 20 21 22 0
13 15 16 17 18 20 21 23 0
13 15 16 17 18 20 21 24 0
13 15 16 17 18 20 22 23 0
13 15 16 17 18 20 22 24 0
13 15 16 17 18 20 23 24 0
13 15 16 17 18 21 22 23 0
13 15 16 17 18 21 22 24 0
13 15 16 17 18 21 23 24 0
13 15 16 17 18 22 23 24 0
13 15 16 17 19 20 21 22 0
13 15 16 17 19 20 21 23 0
13 15 16 17 19 20 21 24 0
13 15 16 17 19 20 22 23 0
13 15 16 17 19 20 22 24 0
13 15 16 17 19 20 23 24 0
13 15 16 17 19 21 22 23 0
13 15 16 17 19 21 22 24 0
13 15 16 17 19 21 23 24 0
13 15 16 17 19 22 23 24 0
13 15 16 17 20 21 22 23 0
13 15 16 17 20 21 22 24 0
13 15 16 17 20 21 23 24 0
13 15 16 17 20 22 23 24 0
13 15 16 17 21 22 23 24 0
13 15 16 18 19 20 21 22 0
13 15 16 18 19 20 21 23 0
13 15 16 18 19 20 21 24 0
13 15 16 18 19 20 22 23 0
13 15 16 18 19 20 22 24 0
13 15 16 18 19 20 23 24 0
13 15 16 18 19 21 22 23 0
13 15 16 18 19 21 22 24 0
13 15 16 18 19 21 23 24 0
13 15 16 18 19 22 23 24 0
13 15 16 18 20 21 22 23 0
13 15 16 18 20 21 22 24 0
13 15 16 18 20 21 23 24 0
13 15 16 18 20 22 23 24 0
13 15 16 18 21 22 23 24 0
13 15 16 19 20 21 22 23 0
13 15 16 19 20 21 22 24 0
13 15 16 19 20 21 23 24 0
13 15 16 19 20 22 23 24 0
13 15 16 19 21 22 23 24 0
13 15 16 20 21 22 23 24 0
13 15 17 18 19 20 21 22 0
13 15 17 18 19 20 21 23 0
13 15 17 18 19 20 21 24 0
13 15 17 18 19 20 22 23 0
13 15 17 18 19 20 22 24 0
13 15 17 18 19 20 23 24 0
13 15 17 18 19 21 22 23 0
13 15 17 18 19 21 22 24 0
13 15 17 18 19 21 23 24 0
13 15 17 18 19 22 23 24 0
13 15 17 18 20 21 22 23 0
13 15 17 18 20 21 22 24 0
13 15 17 18 20 21 23 24 0
13 15 17 18 20 22 23 24 0
13 15 17 18 21 22 23 24 0
13 15 17 19 20 21 22 23 0
13 15 17 19 20 21 22 24 0
13 15 17 19 20 21 23 24 0
13 15 17 19 20 22 23 24 0
13 15 17 19 21 22 23 24 0
13 15 17 20 21 22 23 24 0
13 15 18 19 20 21 22 23 0
13 15 18 19 20 21 22 24 0
13 15 18 19 20 21 23 24 0
13 15 18 19 20 22 23 24 0
13 15 18 19 21 22 23 24 0
13 15 18 20 21 22 23 24 0
13 15 19 20 21 22 23 24 0
13 16 17 18 19 20 21 22 0
13 16 17 18 19 20 21 23 0
13 16 17 18 19 20 21 24 0
13 16 17 18 19 20 22 23 0
13 16 17 18 19 20 22 24 0
13 16 17 18 19 20 23 24 0
13 16 17 18 19 21 22 23 0
13 16 17 18 19 21 22 24 0
13 16 17 18 19 21 23 24 0
13 16 17 18 19 22 23 24 0
13 16 17 18 20 21 22 23 0
13 16 17 18 20 21 22 24 0
13 16 17 18 20 21 23 24 0
13 16 17 18 20 22 23 24 0
13 16 17 18 21 22 23 24 0
13 16 17 19 20 21 22 23 0
13 16 17 19 20 21 22 24 0
13 16 17 19 20 21 23 24 0
13 16 17 19 20 22 23 24 0
13 16 17 19 21 22 23 24 0
13 16 17 20 21 22 23 24 0
13 16 18 19 20 21 22 23 0
13 16 18 19 20 21 22 24 0
13 16 18 19 20 21 23 24 0
13 16 18 19 20 22 23 24 0
13 16 18 19 21 22 23 24 0
13 16 18 20 21 22 23 24 0
13 16 19 20 21 22 23 24 0
13 17 18 19 20 21 22 23 0
13 17 18 19 20 21 22 24 0
13 17 18 19 20 21 23 24 0
13 17 18 19 20 22 23 24 0
13 17 18 19 21 22 23 24 0
13 17 18 20 21 22 23 24 0
13 17 19 20 21 22 23 24 0
13 18 19 20 21 22 23 24 0
15 16 17 18 19 20 21 22 0
15 16 17 18 19 20 21 23 0
15 16 17 18 19 20 21 24 0
15 16 17 18 19 20 22 23 0
15 16 17 18 19 20 22 24 0
15 16 17 18 19 20 23 24 0
15 16 17 18 19 21 22 23 0
15 16 17 18 19 21 22 24 0
15 16 17 18 19 21 23 24 0
15 16 17 18 19 22 23 24 0
15 16 17 18 20 21 22 23 0
15 16 17 18 20 21 22 24 0
15 16 17 18 20 21 23 24 0
15 16 17 18 20 22 23 24 0
15 16 17 18 21 22 23 24 0
15 16 17 19 20 21 22 23 0
15 16 17 19 20 21 22 24 0
15 16 17 19 20 21 23 24 0
15 16 17 19 20 22 23 24 0
15 16 17 19 21 22 23 24 0
15 16 17 20 21 22 23 24 0
15 16 18 19 20 21 22 23 0
15 16 18 19 20 21 22 24 0
15 16 18 19 20 21 23 24 0
15 16 18 19 20 22 23 24 0
15 16 18 19 21 22 23 24 0
15 16 18 20 21 22 23 24 0
15 16 19 20 21 22 23 24 0
15 17 18 19 20 21 22 23 0
15 17 18 19 20 21 22 24 0
15 17 18 19 20 21 23 24 0
15 17 18 19 20 22 23 24 0
15 17 18 19 21 22 23 24 0
15 17 18 20 21 22 23 24 0
15 17 19 20 21 22 23 24 0
15 18 19 20 21 22 23 24 0
16 17 18 19 20 21 22 23 0
16 17 18 19 20 21 22 24 0
16 17 18 19 20 21 23 24 0
16 17 18 19 20 22 23 24 0
16 17 18 19 21 22 23 24 0
16 17 18 20 21 22 23 24 0
16 17 19 20 21 22 23 24 0
16 18 19 20 21 22 23 24 0
17 18 19 20 21 22 23 24 0
-13 -15 -16 -17 -18 0
-13 -15 -16 -17 -19 0
-13 -15 -16 -17 -20 0
-13 -15 -16 -17 -21 0
-13 -15 -16 -17 -22 0
-13 -15 -16 -17 -23 0
-13 -15 -16 -17 -24 0
-13 -15 -16 -18 -19 0
-13 -15 -16 -18 -20 0
-13 -15 -16 -18 -21 0
-13 -15 -16 -18 -22 0
-13 -15 -16 -18 -23 0
-13 -15 -16 -18 -24 0
-13 -15 -16 -19 -20 0
-13 -15 -16 -19 -21 0
-13 -15 -16 -19 -22 0
-13 -15 -16 -19 -23 0
-13 -15 -16 -19 -24 0
-13 -15 -16 -20 -21 0
-13 -15 -16 -20 -22 0
-13 -15 -16 -20 -23 0
-13 -15 -16 -20 -24 0
-13 -15 -16 -21 -22 0
-13 -15 -16 -21 -23 0
-13 -15 -16 -21 -24 0
-13 -15 -16 -22 -23 0
-13 -15 -16 -22 -24 0
-13 -15 -16 -23 -24 0
-13 -15 -17 -18 -19 0
-13 -15 -17 -18 -20 0
-13 -15 -17 -18 -21 0
-13 -15 -17 -18 -22 0
-13 -15 -17 -18 -23 0
-13 -15 -17 -18 -24 0
-13 -15 -17 -19 -20 0
-13 -15 -17 -19 -21 0
-13 -15 -17 -19 -22 0
-13 -15 -17 -19 -23 0
-13 -15 -17 -19 -24 0
-13 -15 -17 -20 -21 0
-13 -15 -17 -20 -22 0
-13 -15 -17 -20 -23 0
-13 -15 -17 -20 -24 0
-13 -15 -17 -21 -22 0
-13 -15 -17 -21 -23 0
-13 -15 -17 -21 -24 0
-13 -15 -17 -22 -23 0
-13 -15 -17 -22 -24 0
-13 -15 -17 -23 -24 0
-13 -15 -18 -19 -20 0
-13 -15 -18 -19 -21 0
-13 -15 -18 -19 -22 0
-13 -15 -18 -19 -23 0
-13 -15 -18 -19 -24 0
-13 -15 -18 -20 -21 0
-13 -15 -18 -20 -22 0
-13 -15 -18 -20 -23 0
-13 -15 -18 -20 -24 0
-13 -15 -18 -21 -22 0
-13 -15 -18 -21 -23 0
-13 -15 -18 -21 -24 0
-13 -15 -18 -22 -23 0
-13 -15 -18 -22 -24 0
-13 -15 -18 -23 -24 0
-13 -15 -19 -20 -21 0
-13 -15 -19 -20 -22 0
-13 -15 -19 -20 -23 0
-13 -15 -19 -20 -24 0
-13 -15 -19 -21 -22 0
-13 -15 -19 -21 -23 0
-13 -15 -19 -21 -24 0
-13 -15 -19 -22 -23 0
-13 -15 -19 -22 -24 0
-13 -15 -19 -23 -24 0
-13 -15 -20 -21 -22 0
-13 -15 -20 -21 -23 0
-13 -15 -20 -21 -24 0
-13 -15 -20 -22 -23 0
-13 -15 -20 -22 -24 0
-13 -15 -20 -23 -24 0
-13 -15 -21 -22 -23 0
-13 -15 -21 -22 -24 0
-13 -15 -21 -23 -24 0
-13 -15 -22 -23 -24 0
-13 -16 -17 -18 -19 0
-13 -16 -17 -18 -20 0
-13 -16 -17 -18 -21 0
-13 -16 -17 -18 -22 0
-13 -16 -17 -18 -23 0
-13 -16 -17 -18 -24 0
-13 -16 -17 -19 -20 0
-13 -16 -17 -19 -21 0
-13 -16 -17 -19 -22 0
-13 -16 -17 -19 -23 0
-13 -16 -17 -19 -24 0
-13 -16 -17 -20 -21 0
-13 -16 -17 -20 -22 0
-13 -16 -17 -20 -23 0
-13 -16 -17 -20 -24 0
-13 -16 -17 -21 -22 0
-13 -16 -17 -21 -23 0
-13 -16 -17 -21 -24 0
-13 -16 -17 -22 -23 0
-13 -16 -17 -22 -24 0
-13 -16 -17 -23 -24 0
-13 -16 -18 -19 -20 0
-13 -16 -18 -19 -21 0
-13 -16 -18 -19 -22 0
-13 -16 -18 -19 -23 0
-13 -16 -18 -19 -24 0
-13 -16 -18 -20 -21 0
-13 -16 -18 -20 -22 0
-13 -16 -18 -20 -23 0
-13 -16 -18 -20 -24 0
-13 -16 -18 -21 -22 0
-13 -16 -18 -21 -23 0
-13 -16 -18 -21 -24 0
-13 -16 -18 -22 -23 0
-13 -16 -18 -22 -24 0
-13 -16 -18 -23 -24 0
-13 -16 -19 -20 -21 0
-13 -16 -19 -20 -22 0
-13 -16 -19 -20 -23 0
-13 -16 -19 -20 -24 0
-13 -16 -19 -21 -22 0
-13 -16 -19 -21 -23 0
-13 -16 -19 -21 -24 0
-13 -16 -19 -22 -23 0
-13 -16 -19 -22 -24 0
-13 -16 -19 -23 -24 0
-13 -16 -20 -21 -22 0
-13 -16 -20 -21 -23 0
-13 -16 -20 -21 -24 0
-13 -16 -20 -22 -23 0
-13 -16 -20 -22 -24 0
-13 -16 -20 -23 -24 0
-13 -16 -21 -22 -23 0
-13 -16 -21 -22 -24 0
-13 -16 -21 -23 -24 0
-13 -16 -22 -23 -24 0
-13 -17 -18 -19 -20 0
-13 -17 -18 -19 -21 0
-13 -17 -18 -19 -22 0
-13 -17 -18 -19 -23 0
-13 -17 -18 -19 -24 0
-13 -17 -18 -20 -21 0
-13 -17 -18 -20 -22 0
-13 -17 -18 -20 -23 0
-13 -17 -18 -20 -24 0
-13 -17 -18 -21 -22 0
-13 -17 -18 -21 -23 0
-13 -17 -18 -21 -24 0
-13 -17 -18 -22 -23 0
-13 -17 -18 -22 -24 0
-13 -17 -18 -23 -24 0
-13 -17 -19 -20 -21 0
-13 -17 -19 -20 -22 0
-13 -17 -19 -20 -23 0
-13 -17 -19 -20 -24 0
-13 -17 -19 -21 -22 0
-13 -17 -19 -21 -23 0
-13 -17 -19 -21 -24 0
-13 -17 -19 -22 -23 0
-13 -17 -19 -22 -24 0
-13 -17 -19 -23 -24 0
-13 -17 -20 -21 -22 0
-13 -17 -20 -21 -23 0
-13 -17 -20 -21 -24 0
-13 -17 -20 -22 -23 0
-13 -17 -20 -22 -24 0
-13 -17 -20 -23 -24 0
-13 -17 -21 -22 -23 0
-13 -17 -21 -22 -24 0
-13 -17 -21 -23 -24 0
-13 -17 -22 -23 -24 0
-13 -18 -19 -20 -21 0
-13 -18 -19 -20 -22 0
-13 -18 -19 -20 -23 0
-13 -18 -19 -20 -24 0
-13 -18 -19 -21 -22 0
-13 -18 -19 -21 -23 0
-13 -18 -19 -21 -24 0
-13 -18 -19 -22 -23 0
-13 -18 -19 -22 -24 0
-13 -18 -19 -23 -24 0
-13 -18 -20 -21 -22 0
-13 -18 -20 -21 -23 0
-13 -18 -20 -21 -24 0
-13 -18 -20 -22 -23 0
-13 -18 -20 -22 -24 0
-13 -18 -20 -23 -24 0
-13 -18 -21 -22 -23 0
-13 -18 -21 -22 -24 0
-13 -18 -21 -23 -24 0
-13 -18 -22 -23 -24 0
-13 -19 -20 -21 -22 0
-13 -19 -20 -21 -23 0
-13 -19 -20 -21 -24 0
-13 -19 -20 -22 -23 0
-13 -19 -20 -22 -24 0
-13 -19 -20 -23 -24 0
-13 -19 -21 -22 -23 0
-13 -19 -21 -22 -24 0
-13 -19 -21 -23 -24 0
-13 -19 -22 -23 -24 0
-13 -20 -21 -22 -23 0
-13 -20 -21 -22 -24 0
-13 -20 -21 -23 -24 0
-13 -20 -22 -23 -24 0
-13 -21 -22 -23 -24 0
-15 -16 -17 -18 -19 0
-15 -16 -17 -18 -20 0
-15 -16 -17 -18 -21 0
-15 -16 -17 -18 -22 0
-15 -16 -17 -18 -23 0
-15 -16 -17 -18 -24 0
-15 -16 -17 -19 -20 0
-15 -16 -17 -19 -21 0
-15 -16 -17 -19 -22 0
-15 -16 -17 -19 -23 0
-15 -16 -17 -19 -24 0
-15 -16 -17 -20 -21 0
-15 -16 -17 -20 -22 0
-15 -16 -17 -20 -23 0
-15 -16 -17 -20 -24 0
-15 -16 -17 -21 -22 0
-15 -16 -17 -21 -23 0
-15 -16 -17 -21 -24 0
-15 -16 -17 -22 -23 0
-15 -16 -17 -22 -24 0
-15 -16 -17 -23 -24 0
-15 -16 -18 -19 -20 0
-15 -16 -18 -19 -21 0
-15 -16 -18 -19 -22 0
-15 -16 -18 -19 -23 0
-15 -16 -18 -19 -24 0
-15 -16 -18 -20 -21 0
-15 -16 -18 -20 -22 0
-15 -16 -18 -20 -23 0
-15 -16 -18 -20 -24 0
-15 -16 -18 -21 -22 0
-15 -16 -18 -21 -23 0
-15 -16 -18 -21 -24 0
-15 -16 -18 -22 -23 0
-15 -16 -18 -22 -24 0
-15 -16 -18 -23 -24 0
-15 -16 -19 -20 -21 0
-15 -16 -19 -20 -22 0
-15 -16 -19 -20 -23 0
-15 -16 -19 -20 -24 0
-15 -16 -19 -21 -22 0
-15 -16 -19 -21 -23 0
-15 -16 -19 -21 -24 0
-15 -16 -19 -22 -23 0
-15 -16 -19 -22 -24 0
-15 -16 -19 -23 -24 0
-15 -16 -20 -21 -22 0
-15 -16 -20 -21 -23 0
-15 -16 -20 -21 -24 0
-15 -16 -20 -22 -23 0
-15 -16 -20 -22 -24 0
-15 -16 -20 -23 -24 0
-15 -16 -21 -22 -23 0
-15 -16 -21 -22 -24 0
-15 -16 -21 -23 -24 0
-15 -16 -22 -23 -24 0
-15 -17 -18 -19 -20 0
-15 -17 -18 -19 -21 0
-15 -17 -18 -19 -22 0
-15 -17 -18 -19 -23 0
-15 -17 -18 -19 -24 0
-15 -17 -18 -20 -21 0
-15 -17 -18 -20 -22 0
-15 -17 -18 -20 -23 0
-15 -17 -18 -20 -24 0
-15 -17 -18 -21 -22 0
-15 -17 -18 -21 -23 0
-15 -17 -18 -21 -24 0
-15 -17 -18 -22 -23 0
-15 -17 -18 -22 -24 0
-15 -17 -18 -23 -24 0
-15 -17 -19 -20 -21 0
-15 -17 -19 -20 -22 0
-15 -17 -19 -20 -23 0
-15 -17 -19 -20 -24 0
-15 -17 -19 -21 -22 0
-15 -17 -19 -21 -23 0
-15 -17 -19 -21 -24 0
-15 -17 -19 -22 -23 0
-15 -17 -19 -22 -24 0
-15 -17 -19 -23 -24 0
-15 -17 -20 -21 -22 0
-15 -17 -20 -21 -23 0
-15 -17 -20 -21 -24 0
-15 -17 -20 -22 -23 0
-15 -17 -20 -22 -24 0
-15 -17 -20 -23 -24 0
-15 -17 -21 -22 -23 0
-15 -17 -21 -22 -24 0
-15 -17 -21 -23 -24 0
-15 -17 -22 -23 -24 0
-15 -18 -19 -20 -21 0
-15 -18 -19 -20 -22 0
-15 -18 -19 -20 -23 0
-15 -18 -19 -20 -24 0
-15 -18 -19 -21 -22 0
-15 -18 -19 -21 -23 0
-15 -18 -19 -21 -24 0
-15 -18 -19 -22 -23 0
-15 -18 -19 -22 -24 0
-15 -18 -19 -23 -24 0
-15 -18 -20 -21 -22 0
-15 -18 -20 -21 -23 0
-15 -18 -20 -21 -24 0
-15 -18 -20 -22 -23 0
-15 -18 -20 -22 -24 0
-15 -18 -20 -23 -24 0
-15 -18 -21 -22 -23 0
-15 -18 -21 -22 -24 0
-15 -18 -21 -23 -24 0
-15 -18 -22 -23 -24 0
-15 -19 -20 -21 -22 0
-15 -19 -20 -21 -23 0
-15 -19 -20 -21 -24 0
-15 -19 -20 -22 -23 0
-15 -19 -20 -22 -24 0
-15 -19 -20 -23 -24 0
-15 -19 -21 -22 -23 0
-15 -19 -21 -22 -24 0
-15 -19 -21 -23 -24 0
-15 -19 -22 -23 -24 0
-15 -20 -21 -22 -23 0
-15 -20 -21 -22 -24 0
-15 -20 -21 -23 -24 0
-15 -20 -22 -23 -24 0
-15 -21 -22 -23 -24 0
-16 -17 -18 -19 -20 0
-16 -17 -18 -19 -21 0
-16 -17 -18 -19 -22 0
-16 -17 -18 -19 -23 0
-16 -17 -18 -19 -24 0
-16 -17 -18 -20 -21 0
-16 -17 -18 -20 -22 0
-16 -17 -18 -20 -23 0
-16 -17 -18 -20 -24 0
-16 -17 -18 -21 -22 0
-16 -17 -18 -21 -23 0
-16 -17 -18 -21 -24 0
-16 -17 -18 -22 -23 0
-16 -17 -18 -22 -24 0
-16 -17 -18 -23 -24 0
-16 -17 -19 -20 -21 0
-16 -17 -19 -20 -22 0
-16 -17 -19 -20 -23 0
-16 -17 -19 -20 -24 0
-16 -17 -19 -21 -22 0
-16 -17 -19 -21 -23 0
-16 -17 -19 -21 -24 0
-16 -17 -19 -22 -23 0
-16 -17 -19 -22 -24 0
-16 -17 -19 -23 -24 0
-16 -17 -20 -21 -22 0
-16 -17 -20 -21 -23 0
-16 -17 -20 -21 -24 0
-16 -17 -20 -22 -23 0
-16 -17 -20 -22 -24 0
-16 -17 -20 -23 -24 0
-16 -17 -21 -22 -23 0
-16 -17 -21 -22 -24 0
-16 -17 -21 -23 -24 0
-16 -17 -22 -23 -24 0
-16 -18 -19 -20 -21 0
-16 -18 -19 -20 -22 0
-16 -18 -19 -20 -23 0
-16 -18 -19 -20 -24 0
-16 -18 -19 -21 -22 0
-16 -18 -19 -21 -23 0
-16 -18 -19 -21 -24 0
-16 -18 -19 -22 -23 0
-16 -18 -19 -22 -24 0
-16 -18 -19 -23 -24 0
-16 -18 -20 -21 -22 0
-16 -18 -20 -21 -23 0
-16 -18 -20 -21 -24 0
-16 -18 -20 -22 -23 0
-16 -18 -20 -22 -24 0
-16 -18 -20 -23 -24 0
-16 -18 -21 -22 -23 0
-16 -18 -21 -22 -24 0
-16 -18 -21 -23 -24 0
-16 -18 -22 -23 -24 0
-16 -19 -20 -21 -22 0
-16 -19 -20 -21 -23 0
-16 -19 -20 -21 -24 0
-16 -19 -20 -22 -23 0
-16 -19 -20 -22 -24 0
-16 -19 -20 -23 -24 0
-16 -19 -21 -22 -23 0
-16 -19 -21 -22 -24 0
-16 -19 -21 -23 -24 0
-16 -19 -22 -23 -24 0
-16 -20 -21 -22 -23 0
-16 -20 -21 -22 -24 0
-16 -20 -21 -23 -24 0
-16 -20 -22 -23 -24 0
-16 -21 -22 -23 -24 0
-17 -18 -19 -20 -21 0
-17 -18 -19 -20 -22 0
-17 -18 -19 -20 -23 0
-17 -18 -19 -20 -24 0
-17 -18 -19 -21 -22 0
-17 -18 -19 -21 -23 0
-17 -18 -19 -21 -24 0
-17 -18 -19 -22 -23 0
-17 -18 -19 -22 -24 0
-17 -18 -19 -23 -24 0
-17 -18 -20 -21 -22 0
-17 -18 -20 -21 -23 0
-17 -18 -20 -21 -24 0
-17 -18 -20 -22 -23 0
-17 -18 -20 -22 -24 0
-17 -18 -20 -23 -24 0
-17 -18 -21 -22 -23 0
-17 -18 -21 -22 -24 0
-17 -18 -21 -23 -24 0
-17 -18 -22 -23 -24 0
-17 -19 -20 -21 -22 0
-17 -19 -20 -21 -23 0
-17 -19 -20 -21 -24 0
-17 -19 -20 -22 -23 0
-17 -19 -20 -22 -24 0
-17 -19 -20 -23 -24 0
-17 -19 -21 -22 -23 0
-17 -19 -21 -22 -24 0
-17 -19 -21 -23 -24 0
-17 -19 -22 -23 -24 0
-17 -20 -21 -22 -23 0
-17 -20 -21 -22 -24 0
-17 -20 -21 -23 -24 0
-17 -20 -22 -23 -24 0
-17 -21 -22 -23 -24 0
-18 -19 -20 -21 -22 0
-18 -19 -20 -21 -23 0
-18 -19 -20 -21 -24 0
-18 -19 -20 -22 -23 0
-18 -19 -20 -22 -24 0
-18 -19 -20 -23 -24 0
-18 -19 -21 -22 -23 0
-18 -19 -21 -22 -24 0
-18 -19 -21 -23 -24 0
-18 -19 -22 -23 -24 0
-18 -20 -21 -22 -23 0
-18 -20 -21 -22 -24 0
-18 -20 -21 -23 -24 0
-18 -20 -22 -23 -24 0
-18 -21 -22 -23 -24 0
-19 -20 -21 -22 -23 0
-19 -20 -21 -22 -24 0
-19 -20 -21 -23 -24 0
-19 -20 -22 -23 -24 0
-19 -21 -22 -23 -24 0
-20 -21 -22 -23 -24 0
25 26 28 29 30 31 32 33 0
25 26 28 29 30 31 32 34 0
25 26 28 29 30 31 32 35 0
25 26 28 29 30 31 32 36 0
25 26 28 29 30 31 33 34 0
25 26 28 29 30 31 33 35 0
25 26 28 29 30 31 33 36 0
25 26 28 29 30 31 34 35 0
25 26 28 29 30 31 34 36 0
25 26 28 29 30 31 35 36 0
25 26 28 29 30 32 33 34 0
25 26 28 29 30 32 33 35 0
25 26 28 29 30 32 33 36 0
25 26 28 29 30 32 34 35 0
25 26 28 29 30 32 34 36 0
25 26 28 29 30 32 35 36 0
25 26 28 29 30 33 34 35 0
25 26 28 29 30 33 34 36 0
25 26 28 29 30 33 35 36 0
25 26 28 29 30 34 35 36 0
25 26 28 29 31 32 33 34 0
25 26 28 29 31 32 33 35 0
25 26 28 29 31 32 33 36 0
25 26 28 29 31 32 34 35 0
25 26 28 29 31 32 34 36 0
25 26 28 29 31 32 35 36 0
25 26 28 29 31 33 34 35 0
25 26 28 29 31 33 34 36 0
25 26 28 29 31 33 35 36 0
25 26 28 29 31 34 35 36 0
25 26 28 29 32 33 34 35 0
25 26 28 29 32 33 34 36 0
25 26 28 29 32 33 35 36 0
25 26 28 29 32 34 35 36 0
25 26 28 29 33 34 35 36 0
25 26 28 30 31 32 33 34 0
25 26 28 30 31 32 33 35 0
25 26 28 30 31 32 33 36 0
25 26 28 30 31 32 34 35 0
25 26 28 30 31 32 34 36 0
25 26 28 30 31 32 35 36 0
25 26 28 30 31 33 34 35 0
25 26 28 30 31 33 34 36 0
25 26 28 30 31 33 35 36 0
25 26 28 30 31 34 35 36 0
25 26 28 30 32 33 34 35 0
25 26 28 30 32 33 34 36 0
25 26 28 30 32 33 35 36 0
25 26 28 30 32 34 35 36 0
25 26 28 30 33 34 35 36 0
25 26 28 31 32 33 34 35 0
25 26 28 31 32 33 34 36 0
25 26 28 31 32 33 35 36 0
25 26 28 31 32 34 35 36 0
25 26 28 31 33 34 35 36 0
25 26 28 32 33 34 35 36 0
25 26 29 30 31 32 33 34 0
25 26 29 30 31 32 33 35 0
25 26 29 30 31 32 33 36 0
25 26 29 30 31 32 34 35 0
25 26 29 30 31 32 34 36 0
25 26 29 30 31 32 35 36 0
25 26 29 30 31 33 34 35 0
25 26 29 30 31 33 34 36 0
25 26 29 30 31 33 35 36 0
25 26 29 30 31 34 35 36 0
25 26 29 30 32 33 34 35 0
25 26 29 30 32 33 34 36 0
25 26 29 30 32 33 35 36 0
25 26 29 30 32 34 35 36 0
25 26 29 30 33 34 35 36 0
25 26 29 31 32 33 34 35 0
25 26 29 31 32 33 34 36 0
25 26 29 31 32 33 35 36 0
25 26 29 31 32 34 35 36 0
25 26 29 31 33 34 35 36 0
25 26 29 32 33 34 35 36 0
25 26 30 31 32 33 34 35 0
25 26 30 31 32 33 34 36 0
25 26 30 31 32 33 35 36 0
25 26 30 31 32 34 35 36 0
25 26 30 31 33 34 35 36 0
25 26 30 32 33 34 35 36 0
25 26 31 32 33 34 35 36 0
25 28 29 30 31 32 33 34 0
25 28 29 30 31 32 33 35 0
25 28 29 30 31 32 33 36 0
25 28 29 30 31 32 34 35 0
25 28 29 30 31 32 34 36 0
25 28 29 30 31 32 35 36 0
25 28 29 30 31 33 34 35 0
25 28 29 30 31 33 34 36 0
25 28 29 30 31 33 35 36 0
25 28 29 30 31 34 35 36 0
25 28 29 30 32 33 34 35 0
25 28 29 30 32 33 34 36 0
25 28 29 30 32 33 35 36 0
25 28 29 30 32 34 35 36 0
25 28 29 30 33 34 35 36 0
25 28 29 31 32 33 34 35 0
25 28 29 31 32 33 34 36 0
25 28 29 31 32 33 35 36 0
25 28 29 31 32 34 35 36 0
25 28 29 31 33 34 35 36 0
25 28 29 32 33 34 35 36 0
25 28 30 31 32 33 34 35 0
25 28 30 31 32 33 34 36 0
25 28 30 31 32 33 35 36 0
25 28 30 31 32 34 35 36 0
25 28 30 31 33 34 35 36 0
25 28 30 32 33 34 35 36 0
25 28 31 32 33 34 35 36 0
25 29 30 31 32 33 34 35 0
25 29 30 31 32 33 34 36 0
25 29 30 31 32 33 35 36 0
25 29 30 31 32 34 35 36 0
25 29 30 31 33 34 35 36 0
25 29 30 32 33 34 35 36 0
25 29 31 32 33 34 35 36 0
25 30 31 32 33 34 35 36 0
26 28 29 30 31 32 33 34 0
26 28 29 30 31 32 33 35 0
26 28 29 30 31 32 33 36 0
26 28 29 30 31 32 34 35 0
26 28 29 30 31 32 34 36 0
26 28 29 30 31 32 35 36 0
26 28 29 30 31 33 34 35 0
26 28 29 30 31 33 34 36 0
26 28 29 30 31 33 35 36 0
26 28 29 30 31 34 35 36 0
26 28 29 30 32 33 34 35 0
26 28 29 30 32 33 34 36 0
26 28 29 30 32 33 35 36 0
26 28 29 30 32 34 35 36 0
26 28 29 30 33 34 35 36 0
26 28 29 31 32 33 34 35 0
26 28 29 31 32 33 34 36 0
26 28 29 31 32 33 35 36 0
26 28 29 31 32 34 35 36 0
26 28 29 31 33 34 35 36 0
26 28 29 32 33 34 35 36 0
26 28 30 31 32 33 34 35 0
26 28 30 31 32 33 34 36 0
26 28 30 31 32 33 35 36 0
26 28 30 31 32 34 35 36 0
26 28 30 31 33 34 35 36 0
26 28 30 32 33 34 35 36 0
26 28 31 32 33 34 35 36 0
26 29 30 31 32 33 34 35 0
26 29 30 31 32 33 34 36 0
26 29 30 31 32 33 35 36 0
26 29 30 31 32 34 35 36 0
26 29 30 31 33 34 35 36 0
26 29 30 32 33 34 35 36 0
26 29 31 32 33 34 35 36 0
26 30 31 32 33 34 35 36 0
28 29 30 31 32 33 34 35 0
28 29 30 31 32 33 34 36 0
28 29 30 31 32 33 35 36 0
28 29 30 31 32 34 35 36 0
28 29 30 31 33 34 35 36 0
28 29 30 32 33 34 35 36 0
28 29 31 32 33 34 35 36 0
28 30 31 32 33 34 35 36 0
29 30 31 32 33 34 35 36 0
-25 -26 -28 -29 -30 0
-25 -26 -28 -29 -31 0
-25 -26 -28 -29 -32 0
-25 -26 -28 -29 -33 0
-25 -26 -28 -29 -34 0
-25 -26 -28 -29 -35 0
-25 -26 -28 -29 -36 0
-25 -26 -28 -30 -31 0
-25 -26 -28 -30 -32 0
-25 -26 -28 -30 -33 0
-25 -26 -28 -30 -34 0
-25 -26 -28 -30 -35 0
-25 -26 -28 -30 -36 0
-25 -26 -28 -31 -32 0
-25 -26 -28 -31 -33 0
-25 -26 -28 -31 -34 0
-25 -26 -28 -31 -35 0
-25 -26 -28 -31 -36 0
-25 -26 -28 -32 -33 0
-25 -26 -28 -32 -34 0
-25 -26 -28 -32 -35 0
-25 -26 -28 -32 -36 0
-25 -26 -28 -33 -34 0
-25 -26 -28 -33 -35 0
-25 -26 -28 -33 -36 0
-25 -26 -28 -34 -35 0
-25 -26 -28 -34 -36 0
-25 -26 -28 -35 -36 0
-25 -26 -29 -30 -31 0
-25 -26 -29 -30 -32 0
-25 -26 -29 -30 -33 0
-25 -26 -29 -30 -34 0
-25 -26 -29 -30 -35 0
-25 -26 -29 -30 -36 0
-25 -26 -29 -31 -32 0
-25 -26 -29 -31 -33 0
-25 -26 -29 -31 -34 0
-25 -26 -29 -31 -35 0
-25 -26 -29 -31 -36 0
-25 -26 -29 -32 -33 0
-25 -26 -29 -32 -34 0
-25 -26 -29 -32 -35 0
-25 -26 -29 -32 -36 0
-25 -26 -29 -33 -34 0
-25 -26 -29 -33 -35 0
-25 -26 -29 -33 -36 0
-25 -26 -29 -34 -35 0
-25 -26 -29 -34 -36 0
-25 -26 -29 -35 -36 0
-25 -26 -30 -31 -32 0
-25 -26 -30 -31 -33 0
-25 -26 -30 -31 -34 0
-25 -26 -30 -31 -35 0
-25 -26 -30 -31 -36 0
-25 -26 -30 -32 -33 0
-25 -26 -30 -32 -34 0
-25 -26 -30 -32 -35 0
-25 -26 -30 -32 -36 0
-25 -26 -30 -33 -34 0
-25 -26 -30 -33 -35 0
-25 -26 -30 -33 -36 0
-25 -26 -30 -34 -35 0
-25 -26 -30 -34 -36 0
-25 -26 -30 -35 -36 0
-25 -26 -31 -32 -33 0
-25 -26 -31 -32 -34 0
-25 -26 -31 -32 -35 0
-25 -26 -31 -32 -36 0
-25 -26 -31 -33 -34 0
-25 -26 -31 -33 -35 0
-25 -26 -31 -33 -36 0
-25 -26 -31 -34 -35 0
-25 -26 -31 -34 -36 0
-25 -26 -31 -35 -36 0
-25 -26 -32 -33 -34 0
-25 -26 -32 -33 -35 0
-25 -26 -32 -33 -36 0
-25 -26 -32 -34 -35 0
-25 -26 -32 -34 -36 0
-25 -26 -32 -35 -36 0
-25 -26 -33 -34 -35 0
-25 -26 -33 -34 -36 0
-25 -26 -33 -35 -36 0
-25 -26 -34 -35 -36 0
-25 -28 -29 -30 -31 0
-25 -28 -29 -30 -32 0
-25 -28 -29 -30 -33 0
-25 -28 -29 -30 -34 0
-25 -28 -29 -30 -35 0
-25 -28 -29 -30 -36 0
-25 -28 -29 -31 -32 0
-25 -28 -29 -31 -33 0
-25 -28 -29 -31 -34 0
-25 -28 -29 -31 -35 0
-25 -28 -29 -31 -36 0
-25 -28 -29 -32 -33 0
-25 -28 -29 -32 -34 0
-25 -28 -29 -32 -35 0
-25 -28 -29 -32 -36 0
-25 -28 -29 -33 -34 0
-25 -28 -29 -33 -35 0
-25 -28 -29 -33 -36 0
-25 -28 -29 -34 -35 0
-25 -28 -29 -34 -36 0
-25 -28 -29 -35 -36 0
-25 -28 -30 -31 -32 0
-25 -28 -30 -31 -33 0
-25 -28 -30 -31 -34 0
-25 -28 -30 -31 -35 0
-25 -28 -30 -31 -36 0
-25 -28 -30 -32 -33 0
-25 -28 -30 -32 -34 0
-25 -28 -30 -32 -35 0
-25 -28 -30 -32 -36 0
-25 -28 -30 -33 -34 0
-25 -28 -30 -33 -35 0
-25 -28 -30 -33 -36 0
-25 -28 -30 -34 -35 0
-25 -28 -30 -34 -36 0
-25 -28 -30 -35 -36 0
-25 -28 -31 -32 -33 0
-25 -28 -31 -32 -34 0
-25 -28 -31 -32 -35 0
-25 -28 -31 -32 -36 0
-25 -28 -31 -33 -34 0
-25 -28 -31 -33 -35 0
-25 -28 -31 -33 -36 0
-25 -28 -31 -34 -35 0
-25 -28 -31 -34 -36 0
-25 -28 -31 -35 -36 0
-25 -28 -32 -33 -34 0
-25 -28 -32 -33 -35 0
-25 -28 -32 -33 -36 0
-25 -28 -32 -34 -35 0
-25 -28 -32 -34 -36 0
-25 -28 -32 -35 -36 0
-25 -28 -33 -34 -35 0
-25 -28 -33 -34 -36 0
-25 -28 -33 -35 -36 0
-25 -28 -34 -35 -36 0
-25 -29 -30 -31 -32 0
-25 -29 -30 -31 -33 0
-25 -29 -30 -31 -34 0
-25 -29 -30 -31 -35 0
-25 -29 -30 -31 -36 0
-25 -29 -30 -32 -33 0
-25 -29 -30 -32 -34 0
-25 -29 -30 -32 -35 0
-25 -29 -30 -32 -36 0
-25 -29 -30 -33 -34 0
-25 -29 -30 -33 -35 0
-25 -29 -30 -33 -36 0
-25 -29 -30 -34 -35 0
-25 -29 -30 -34 -36 0
-25 -29 -30 -35 -36 0
-25 -29 -31 -32 -33 0
-25 -29 -31 -32 -34 0
-25 -29 -31 -32 -35 0
-25 -29 -31 -32 -36 0
-25 -29 -31 -33 -34 0
-25 -29 -31 -33 -35 0
-25 -29 -31 -33 -36 0
-25 -29 -31 -34 -35 0
-25 -29 -31 -34 -36 0
-25 -29 -31 -35 -36 0
-25 -29 -32 -33 -34 0
-25 -29 -32 -33 -35 0
-25 -29 -32 -33 -36 0
-25 -29 -32 -34 -35 0
-25 -29 -32 -34 -36 0
-25 -29 -32 -35 -36 0
-25 -29 -33 -34 -35 0
-25 -29 -33 -34 -36 0
-25 -29 -33 -35 -36 0
-25 -29 -34 -35 -36 0
-25 -30 -31 -32 -33 0
-25 -30 -31 -32 -34 0
-25 -30 -31 -32 -35 0
-25 -30 -31 -32 -36 0
-25 -30 -31 -33 -34 0
-25 -30 -31 -33 -35 0
-25 -30 -31 -33 -36 0
-25 -30 -31 -34 -35 0
-25 -30 -31 -34 -36 0
-25 -30 -31 -35 -36 0
-25 -30 -32 -33 -34 0
-25 -30 -32 -33 -35 0
-25 -30 -32 -33 -36 0
-25 -30 -32 -34 -35 0
-25 -30 -32 -34 -36 0
-25 -30 -32 -35 -36 0
-25 -30 -33 -34 -35 0
-25 -30 -33 -34 -36 0
-25 -30 -33 -35 -36 0
-25 -30 -34 -35 -36 0
-25 -31 -32 -33 -34 0
-25 -31 -32 -33 -35 0
-25 -31 -32 -33 -36 0
-25 -31 -32 -34 -35 0
-25 -31 -32 -34 -36 0
-25 -31 -32 -35 -36 0
-25 -31 -33 -34 -35 0
-25 -31 -33 -34 -36 0
-25 -31 -33 -35 -36 0
-25 -31 -34 -35 -36 0
-25 -32 -33 -34 -35 0
-25 -32 -33 -34 -36 0
-25 -32 -33 -35 -36 0
-25 -32 -34 -35 -36 0
-25 -33 -34 -35 -36 0
-26 -28 -29 -30 -31 0
-26 -28 -29 -30 -32 0
-26 -28 -29 -30 -33 0
-26 -28 -29 -30 -34 0
-26 -28 -29 -30 -35 0
-26 -28 -29 -30 -36 0
-26 -28 -29 -31 -32 0
-26 -28 -29 -31 -33 0
-26 -28 -29 -31 -34 0
-26 -28 -29 -31 -35 0
-26 -28 -29 -31 -36 0
-26 -28 -29 -32 -33 0
-26 -28 -29 -32 -34 0
-26 -28 -29 -32 -35 0
-26 -28 -29 -32 -36 0
-26 -28 -29 -33 -34 0
-26 -28 -29 -33 -35 0
-26 -28 -29 -33 -36 0
-26 -28 -29 -34 -35 0
-26 -28 -29 -34 -36 0
-26 -28 -29 -35 -36 0
-26 -28 -30 -31 -32 0
-26 -28 -30 -31 -33 0
-26 -28 -30 -31 -34 0
-26 -28 -30 -31 -35 0
-26 -28 -30 -31 -36 0
-26 -28 -30 -32 -33 0
-26 -28 -30 -32 -34 0
-26 -28 -30 -32 -35 0
-26 -28 -30 -32 -36 0
-26 -28 -30 -33 -34 0
-26 -28 -30 -33 -35 0
-26 -28 -30 -33 -36 0
-26 -28 -30 -34 -35 0
-26 -28 -30 -34 -36 0
-26 -28 -30 -35 -36 0
-26 -28 -31 -32 -33 0
-26 -28 -31 -32 -34 0
-26 -28 -31 -32 -35 0
-26 -28 -31 -32 -36 0
-26 -28 -31 -33 -34 0
-26 -28 -31 -33 -35 0
-26 -28 -31 -33 -36 0
-26 -28 -31 -34 -35 0
-26 -28 -31 -34 -36 0
-26 -28 -31 -35 -36 0
-26 -28 -32 -33 -34 0
-26 -28 -32 -33 -35 0
-26 -28 -32 -33 -36 0
-26 -28 -32 -34 -35 0
-26 -28 -32 -34 -36 0
-26 -28 -32 -35 -36 0
-26 -28 -33 -34 -35 0
-26 -28 -33 -34 -36 0
-26 -28 -33 -35 -36 0
-26 -28 -34 -35 -36 0
-26 -29 -30 -31 -32 0
-26 -29 -30 -31 -33 0
-26 -29 -30 -31 -34 0
-26 -29 -30 -31 -35 0
-26 -29 -30 -31 -36 0
-26 -29 -30 -32 -33 0
-26 -29 -30 -32 -34 0
-26 -29 -30 -32 -35 0
-26 -29 -30 -32 -36 0
-26 -29 -30 -33 -34 0
-26 -29 -30 -33 -35 0
-26 -29 -30 -33 -36 0
-26 -29 -30 -34 -35 0
-26 -29 -30 -34 -36 0
-26 -29 -30 -35 -36 0
-26 -29 -31 -32 -33 0
-26 -29 -31 -32 -34 0
-26 -29 -31 -32 -35 0
-26 -29 -31 -32 -36 0
-26 -29 -31 -33 -34 0
-26 -29 -31 -33 -35 0
-26 -29 -31 -33 -36 0
-26 -29 -31 -34 -35 0
-26 -29 -31 -34 -36 0
-26 -29 -31 -35 -36 0
-26 -29 -32 -33 -34 0
-26 -29 -32 -33 -35 0
-26 -29 -32 -33 -36 0
-26 -29 -32 -34 -35 0
-26 -29 -32 -34 -36 0
-26 -29 -32 -35 -36 0
-26 -29 -33 -34 -35 0
-26 -29 -33 -34 -36 0
-26 -29 -33 -35 -36 0
-26 -29 -34 -35 -36 0
-26 -30 -31 -32 -33 0
-26 -30 -31 -32 -34 0
-26 -30 -31 -32 -35 0
-26 -30 -31 -32 -36 0
-26 -30 -31 -33 -34 0
-26 -30 -31 -33 -35 0
-26 -30 -31 -33 -36 0
-26 -30 -31 -34 -35 0
-26 -30 -31 -34 -36 0
-26 -30 -31 -35 -36 0
-26 -30 -32 -33 -34 0
-26 -30 -32 -33 -35 0
-26 -30 -32 -33 -36 0
-26 -30 -32 -34 -35 0
-26 -30 -32 -34 -36 0
-26 -30 -32 -35 -36 0
-26 -30 -33 -34 -35 0
-26 -30 -33 -34 -36 0
-26 -30 -33 -35 -36 0
-26 -30 -34 -35 -36 0
-26 -31 -32 -33 -34 0
-26 -31 -32 -33 -35 0
-26 -31 -32 -33 -36 0
-26 -31 -32 -34 -35 0
-26 -31 -32 -34 -36 0
-26 -31 -32 -35 -36 0
-26 -31 -33 -34 -35 0
-26 -31 -33 -34 -36 0
-26 -31 -33 -35 -36 0
-26 -31 -34 -35 -36 0
-26 -32 -33 -34 -35 0
-26 -32 -33 -34 -36 0
-26 -32 -33 -35 -36 0
-26 -32 -34 -35 -36 0
-26 -33 -34 -35 -36 0
-28 -29 -30 -31 -32 0
-28 -29 -30 -31 -33 0
-28 -29 -30 -31 -34 0
-28 -29 -30 -31 -35 0
-28 -29 -30 -31 -36 0
-28 -29 -30 -32 -33 0
-28 -29 -30 -32 -34 0
-28 -29 -30 -32 -35 0
-28 -29 -30 -32 -36 0
-28 -29 -30 -33 -34 0
-28 -29 -30 -33 -35 0
-28 -29 -30 -33 -36 0
-28 -29 -30 -34 -35 0
-28 -29 -30 -34 -36 0
-28 -29 -30 -35 -36 0
-28 -29 -31 -32 -33 0
-28 -29 -31 -32 -34 0
-28 -29 -31 -32 -35 0
-28 -29 -31 -32 -36 0
-28 -29 -31 -33 -34 0
-28 -29 -31 -33 -35 0
-28 -29 -31 -33 -36 0
-28 -29 -31 -34 -35 0
-28 -29 -31 -34 -36 0
-28 -29 -31 -35 -36 0
-28 -29 -32 -33 -34 0
-28 -29 -32 -33 -35 0
-28 -29 -32 -33 -36 0
-28 -29 -32 -34 -35 0
-28 -29 -32 -34 -36 0
-28 -29 -32 -35 -36 0
-28 -29 -33 -34 -35 0
-28 -29 -33 -34 -36 0
-28 -29 -33 -35 -36 0
-28 -29 -34 -35 -36 0
-28 -30 -31 -32 -33 0
-28 -30 -31 -32 -34 0
-28 -30 -31 -32 -35 0
-28 -30 -31 -32 -36 0
-28 -30 -31 -33 -34 0
-28 -30 -31 -33 -35 0
-28 -30 -31 -33 -36 0
-28 -30 -31 -34 -35 0
-28 -30 -31 -34 -36 0
-28 -30 -31 -35 -36 0
-28 -30 -32 -33 -34 0
-28 -30 -32 -33 -35 0
-28 -30 -32 -33 -36 0
-28 -30 -32 -34 -35 0
-28 -30 -32 -34 -36 0
-28 -30 -32 -35 -36 0
-28 -30 -33 -34 -35 0
-28 -30 -33 -34 -36 0
-28 -30 -33 -35 -36 0
-28 -30 -34 -35 -36 0
-28 -31 -32 -33 -34 0
-28 -31 -32 -33 -35 0
-28 -31 -32 -33 -36 0
-28 -31 -32 -34 -35 0
-28 -31 -32 -34 -36 0
-28 -31 -32 -35 -36 0
-28 -31 -33 -34 -35 0
-28 -31 -33 -34 -36 0
-28 -31 -33 -35 -36 0
-28 -31 -34 -35 -36 0
-28 -32 -33 -34 -35 0
-28 -32 -33 -34 -36 0
-28 -32 -33 -35 -36 0
-28 -32 -34 -35 -36 0
-28 -33 -34 -35 -36 0
-29 -30 -31 -32 -33 0
-29 -30 -31 -32 -34 0
-29 -30 -31 -32 -35 0
-29 -30 -31 -32 -36 0
-29 -30 -31 -33 -34 0
-29 -30 -31 -33 -35 0
-29 -30 -31 -33 -36 0
-29 -30 -31 -34 -35 0
-29 -30 -31 -34 -36 0
-29 -30 -31 -35 -36 0
-29 -30 -32 -33 -34 0
-29 -30 -32 -33 -35 0
-29 -30 -32 -33 -36 0
-29 -30 -32 -34 -35 0
-29 -30 -32 -34 -36 0
-29 -30 -32 -35 -36 0
-29 -30 -33 -34 -35 0
-29 -30 -33 -34 -36 0
-29 -30 -33 -35 -36 0
-29 -30 -34 -35 -36 0
-29 -31 -32 -33 -34 0
-29 -31 -32 -33 -35 0
-29 -31 -32 -33 -36 0
-29 -31 -32 -34 -35 0
-29 -31 -32 -34 -36 0
-29 -31 -32 -35 -36 0
-29 -31 -33 -34 -35 0
-29 -31 -33 -34 -36 0
-29 -31 -33 -35 -36 0
-29 -31 -34 -35 -36 0
-29 -32 -33 -34 -35 0
-29 -32 -33 -34 -36 0
-29 -32 -33 -35 -36 0
-29 -32 -34 -35 -36 0
-29 -33 -34 -35 -36 0
-30 -31 -32 -33 -34 0
-30 -31 -32 -33 -35 0
-30 -31 -32 -33 -36 0
-30 -31 -32 -34 -35 0
-30 -31 -32 -34 -36 0
-30 -31 -32 -35 -36 0
-30 -31 -33 -34 -35 0
-30 -31 -33 -34 -36 0
-30 -31 -33 -35 -36 0
-30 -31 -34 -35 -36 0
-30 -32 -33 -34 -35 0
-30 -32 -33 -34 -36 0
-30 -32 -33 -35 -36 0
-30 -32 -34 -35 -36 0
-30 -33 -34 -35 -36 0
-31 -32 -33 -34 -35 0
-31 -32 -33 -34 -36 0
-31 -32 -33 -35 -36 0
-31 -32 -34 -35 -36 0
-31 -33 -34 -35 -36 0
-32 -33 -34 -35 -36 0
37 38 39 41 42 43 44 45 0
37 38 39 41 42 43 44 46 0
37 38 39 41 42 43 44 47 0
37 38 39 41 42 43 44 48 0
37 38 39 41 42 43 45 46 0
37 38 39 41 42 43 45 47 0
37 38 39 41 42 43 45 48 0
37 38 39 41 42 43 46 47 0
37 38 39 41 42 43 46 48 0
37 38 39 41 42 43 47 48 0
37 38 39 41 42 44 45 46 0
37 38 39 41 42 44 45 47 0
37 38 39 41 42 44 45 48 0
37 38 39 41 42 44 46 47 0
37 38 39 41 42 44 46 48 0
37 38 39 41 42 44 47 48 0
37 38 39 41 42 45 46 47 0
37 38 39 41 42 45 46 48 0
37 38 39 41 42 45 47 48 0
37 38 39 41 42 46 47 48 0
37 38 39 41 43 44 45 46 0
37 38 39 41 43 44 45 47 0
37 38 39 41 43 44 45 48 0
37 38 39 41 43 44 46 47 0
37 38 39 41 43 44 46 48 0
37 38 39 41 43 44 47 48 0
37 38 39 41 43 45 46 47 0
37 38 39 41 43 45 46 48 0
37 38 39 41 43 45 47 48 0
37 38 39 41 43 46 47 48 0
37 38 39 41 44 45 46 47 0
37 38 39 41 44 45 46 48 0
37 38 39 41 44 45 47 48 0
37 38 39 41 44 46 47 48 0
37 38 39 41 45 46 47 48 0
37 38 39 42 43 44 45 46 0
37 38 39 42 43 44 45 47 0
37 38 39 42 43 44 45 48 0
37 38 39 42 43 44 46 47 0
37 38 39 42 43 44 46 48 0
37 38 39 42 43 44 47 48 0
37 38 39 42 43 45 46 47 0
37 38 39 42 43 45 46 48 0
37 38 39 42 43 45 47 48 0
37 38 39 42 43 46 47 48 0
37 38 39 42 44 45 46 47 0
37 38 39 42 44 45 46 48 0
37 38 39 42 44 45 47 48 0
37 38 39 42 44 46 47 48 0
37 38 39 42 45 46 47 48 0
37 38 39 43 44 45 46 47 0
37 38 39 43 44 45 46 48 0
37 38 39 43 44 45 47 48 0
37 38 39 43 44 46 47 48 0
37 38 39 43 45 46 47 48 0
37 38 39 44 45 46 47 48 0
37 38 41 42 43 44 45 46 0
37 38 41 42 43 44 45 47 0
37 38 41 42 43 44 45 48 0
37 38 41 42 43 44 46 47 0
37 38 41 42 43 44 46 48 0
37 38 41 42 43 44 47 48 0
37 38 41 42 43 45 46 47 0
37 38 41 42 43 45 46 48 0
37 38 41 42 43 45 47 48 0
37 38 41 42 43 46 47 48 0
37 38 41 42 44 45 46 47 0
37 38 41 42 44 45 46 48 0
37 38 41 42 44 45 47 48 0
37 38 41 42 44 46 47 48 0
37 38 41 42 45 46 47 48 0
37 38 41 43 44 45 46 47 0
37 38 41 43 44 45 46 48 0
37 38 41 43 44 45 47 48 0
37 38 41 43 44 46 47 48 0
37 38 41 43 45 46 47 48 0
37 38 41 44 45 46 47 48 0
37 38 42 43 44 45 46 47 0
37 38 42 43 44 45 46 48 0
37 38 42 43 44 45 47 48 0
37 38 42 43 44 46 47 48 0
37 38 42 43 45 46 47 48 0
37 38 42 44 45 46 47 48 0
37 38 43 44 45 46 47 48 0
37 39 41 42 43 44 45 46 0
37 39 41 42 43 44 45 47 0
37 39 41 42 43 44 45 48 0
37 39 41 42 43 44 46 47 0
37 39 41 42 43 44 46 48 0
37 39 41 42 43 44 47 48 0
37 39 41 42 43 45 46 47 0
37 39 41 42 43 45 46 48 0
37 39 41 42 43 45 47 48 0
37 39 41 42 43 46 47 48 0
37 39 41 42 44 45 46 47 0
37 39 41 42 44 45 46 48 0
37 39 41 42 44 45 47 48 0
37 39 41 42 44 46 47 48 0
37 39 41 42 45 46 47 48 0
37 39 41 43 44 45 46 47 0
37 39 41 43 44 45 46 48 0
37 39 41 43 44 45 47 48 0
37 39 41 43 44 46 47 48 0
37 39 41 43 45 46 47 48 0
37 39 41 44 45 46 47 48 0
37 39 42 43 44 45 46 47 0
37 39 42 43 44 45 46 48 0
37 39 42 43 44 45 47 48 0
37 39 42 43 44 46 47 48 0
37 39 42 43 45 46 47 48 0
37 39 42 44 45 46 47 48 0
37 39 43 44 45 46 47 48 0
37 41 42 43 44 45 46 47 0
37 41 42 43 44 45 46 48 0
37 41 42 43 44 45 47 48 0
37 41 42 43 44 46 47 48 0
37 41 42 43 45 46 47 48 0
37 41 42 44 45 46 47 48 0
37 41 43 44 45 46 47 48 0
37 42 43 44 45 46 47 48 0
38 39 41 42 43 44 45 46 0
38 39 41 42 43 44 45 47 0
38 39 41 42 43 44 45 48 0
38 39 41 42 43 44 46 47 0
38 39 41 42 43 44 46 48 0
38 39 41 42 43 44 47 48 0
38 39 41 42 43 45 46 47 0
38 39 41 42 43 45 46 48 0
38 39 41 42 43 45 47 48 0
38 39 41 42 43 46 47 48 0
38 39 41 42 44 45 46 47 0
38 39 41 42 44 45 46 48 0
38 39 41 42 44 45 47 48 0
38 39 41 42 44 46 47 48 0
38 39 41 42 45 46 47 48 0
38 39 41 43 44 45 46 47 0
38 39 41 43 44 45 46 48 0
38 39 41 43 44 45 47 48 0
38 39 41 43 44 46 47 48 0
38 39 41 43 45 46 47 48 0
38 39 41 44 45 46 47 48 0
38 39 42 43 44 45 46 47 0
38 39 42 43 44 45 46 48 0
38 39 42 43 44 45 47 48 0
38 39 42 43 44 46 47 48 0
38 39 42 43 45 46 47 48 0
38 39 42 44 45 46 47 48 0
38 39 43 44 45 46 47 48 0
38 41 42 43 44 45 46 47 0
38 41 42 43 44 45 46 48 0
38 41 42 43 44 45 47 48 0
38 41 42 43 44 46 47 48 0
38 41 42 43 45 46 47 48 0
38 41 42 44 45 46 47 48 0
38 41 43 44 45 46 47 48 0
38 42 43 44 45 46 47 48 0
39 41 42 43 44 45 46 47 0
39 41 42 43 44 45 46 48 0
39 41 42 43 44 45 47 48 0
39 41 42 43 44 46 47 48 0
39 41 42 43 45 46 47 48 0
39 41 42 44 45 46 47 48 0
39 41 43 44 45 46 47 48 0
39 42 43 44 45 46 47 48 0
41 42 43 44 45 46 47 48 0
-37 -38 -39 -41 -42 0
-37 -38 -39 -41 -43 0
-37 -38 -39 -41 -44 0
-37 -38 -39 -41 -45 0
-37 -38 -39 -41 -46 0
-37 -38 -39 -41 -47 0
-37 -38 -39 -41 -48 0
-37 -38 -39 -42 -43 0
-37 -38 -39 -42 -44 0
-37 -38 -39 -42 -45 0
-37 -38 -39 -42 -46 0
-37 -38 -39 -42 -47 0
-37 -38 -39 -42 -48 0
-37 -38 -39 -43 -44 0
-37 -38 -39 -43 -45 0
-37 -38 -39 -43 -46 0
-37 -38 -39 -43 -47 0
-37 -38 -39 -43 -48 0
-37 -38 -39 -44 -45 0
-37 -38 -39 -44 -46 0
-37 -38 -39 -44 -47 0
-37 -38 -39 -44 -48 0
-37 -38 -39 -45 -46 0
-37 -38 -39 -45 -47 0
-37 -38 -39 -45 -48 0
-37 -38 -39 -46 -47 0
-37 -38 -39 -46 -48 0
-37 -38 -39 -47 -48 0
-37 -38 -41 -42 -43 0
-37 -38 -41 -42 -44 0
-37 -38 -41 -42 -45 0
-37 -38 -41 -42 -46 0
-37 -38 -41 -42 -47 0
-37 -38 -41 -42 -48 0
-37 -38 -41 -43 -44 0
-37 -38 -41 -43 -45 0
-37 -38 -41 -43 -46 0
-37 -38 -41 -43 -47 0
-37 -38 -41 -43 -48 0
-37 -38 -41 -44 -45 0
-37 -38 -41 -44 -46 0
-37 -38 -41 -44 -47 0
-37 -38 -41 -44 -48 0
-37 -38 -41 -45 -46 0
-37 -38 -41 -45 -47 0
-37 -38 -41 -45 -48 0
-37 -38 -41 -46 -47 0
-37 -38 -41 -46 -48 0
-37 -38 -41 -47 -48 0
-37 -38 -42 -43 -44 0
-37 -38 -42 -43 -45 0
-37 -38 -42 -43 -46 0
-37 -38 -42 -43 -47 0
-37 -38 -42 -43 -48 0
-37 -38 -42 -44 -45 0
-37 -38 -42 -44 -46 0
-37 -38 -42 -44 -47 0
-37 -38 -42 -44 -48 0
-37 -38 -42 -45 -46 0
-37 -38 -42 -45 -47 0
-37 -38 -42 -45 -48 0
-37 -38 -42 -46 -47 0
-37 -38 -42 -46 -48 0
-37 -38 -42 -47 -48 0
-37 -38 -43 -44 -45 0
-37 -38 -43 -44 -46 0
-37 -38 -43 -44 -47 0
-37 -38 -43 -44 -48 0
-37 -38 -43 -45 -46 0
-37 -38 -43 -45 -47 0
-37 -38 -43 -45 -48 0
-37 -38 -43 -46 -47 0
-37 -38 -43 -46 -48 0
-37 -38 -43 -47 -48 0
-37 -38 -44 -45 -46 0
-37 -38 -44 -45 -47 0
-37 -38 -44 -45 -48 0
-37 -38 -44 -46 -47 0
-37 -38 -44 -46 -48 0
-37 -38 -44 -47 -48 0
-37 -38 -45 -46 -47 0
-37 -38 -45 -46 -48 0
-37 -38 -45 -47 -48 0
-37 -38 -46 -47 -48 0
-37 -39 -41 -42 -43 0
-37 -39 -41 -42 -44 0
-37 -39 -41 -42 -45 0
-37 -39 -41 -42 -46 0
-37 -39 -41 -42 -47 0
-37 -39 -41 -42 -48 0
-37 -39 -41 -43 -44 0
-37 -39 -41 -43 -45 0
-37 -39 -41 -43 -46 0
-37 -39 -41 -43 -47 0
-37 -39 -41 -43 -48 0
-37 -39 -41 -44 -45 0
-37 -39 -41 -44 -46 0
-37 -39 -41 -44 -47 0
-37 -39 -41 -44 -48 0
-37 -39 -41 -45 -46 0
-37 -39 -41 -45 -47 0
-37 -39 -41 -45 -48 0
-37 -39 -41 -46 -47 0
-37 -39 -41 -46 -48 0
-37 -39 -41 -47 -48 0
-37 -39 -42 -43 -44 0
-37 -39 -42 -43 -45 0
-37 -39 -42 -43 -46 0
-37 -39 -42 -43 -47 0
-37 -39 -42 -43 -48 0
-37 -39 -42 -44 -45 0
-37 -39 -42 -44 -46 0
-37 -39 -42 -44 -47 0
-37 -39 -42 -44 -48 0
-37 -39 -42 -45 -46 0
-37 -39 -42 -45 -47 0
-37 -39 -42 -45 -48 0
-37 -39 -42 -46 -47 0
-37 -39 -42 -46 -48 0
-37 -39 -42 -47 -48 0
-37 -39 -43 -44 -45 0
-37 -39 -43 -44 -46 0
-37 -39 -43 -44 -47 0
-37 -39 -43 -44 -48 0
-37 -39 -43 -45 -46 0
-37 -39 -43 -45 -47 0
-37 -39 -43 -45 -48 0
-37 -39 -43 -46 -47 0
-37 -39 -43 -46 -48 0
-37 -39 -43 -47 -48 0
-37 -39 -44 -45 -46 0
-37 -39 -44 -45 -47 0
-37 -39 -44 -45 -48 0
-37 -39 -44 -46 -47 0
-37 -39 -44 -46 -48 0
-37 -39 -44 -47 -48 0
-37 -39 -45 -46 -47 0
-37 -39 -45 -46 -48 0
-37 -39 -45 -47 -48 0
-37 -39 -46 -47 -48 0
-37 -41 -42 -43 -44 0
-37 -41 -42 -43 -45 0
-37 -41 -42 -43 -46 0
-37 -41 -42 -43 -47 0
-37 -41 -42 -43 -48 0
-37 -41 -42 -44 -45 0
-37 -41 -42 -44 -46 0
-37 -41 -42 -44 -47 0
-37 -41 -42 -44 -48 0
-37 -41 -42 -45 -46 0
-37 -41 -42 -45 -47 0
-37 -41 -42 -45 -48 0
-37 -41 -42 -46 -47 0
-37 -41 -42 -46 -48 0
-37 -41 -42 -47 -48 0
-37 -41 -43 -44 -45 0
-37 -41 -43 -44 -46 0
-37 -41 -43 -44 -47 0
-37 -41 -43 -44 -48 0
-37 -41 -43 -45 -46 0
-37 -41 -43 -45 -47 0
-37 -41 -43 -45 -48 0
-37 -41 -43 -46 -47 0
-37 -41 -43 -46 -48 0
-37 -41 -43 -47 -48 0
-37 -41 -44 -45 -46 0
-37 -41 -44 -45 -47 0
-37 -41 -44 -45 -48 0
-37 -41 -44 -46 -47 0
-37 -41 -44 -46 -48 0
-37 -41 -44 -47 -48 0
-37 -41 -45 -46 -47 0
-37 -41 -45 -46 -48 0
-37 -41 -45 -47 -48 0
-37 -41 -46 -47 -48 0
-37 -42 -43 -44 -45 0
-37 -42 -43 -44 -46 0
-37 -42 -43 -44 -47 0
-37 -42 -43 -44 -48 0
-37 -42 -43 -45 -46 0
-37 -42 -43 -45 -47 0
-37 -42 -43 -45 -48 0
-37 -42 -43 -46 -47 0
-37 -42 -43 -46 -48 0
-37 -42 -43 -47 -48 0
-37 -42 -44 -45 -46 0
-37 -42 -44 -45 -47 0
-37 -42 -44 -45 -48 0
-37 -42 -44 -46 -47 0
-37 -42 -44 -46 -48 0
-37 -42 -44 -47 -48 0
-37 -42 -45 -46 -47 0
-37 -42 -45 -46 -48 0
-37 -42 -45 -47 -48 0
-37 -42 -46 -47 -48 0
-37 -43 -44 -45 -46 0
-37 -43 -44 -45 -47 0
-37 -43 -44 -45 -48 0
-37 -43 -44 -46 -47 0
-37 -43 -44 -46 -48 0
-37 -43 -44 -47 -48 0
-37 -43 -45 -46 -47 0
-37 -43 -45 -46 -48 0
-37 -43 -45 -47 -48 0
-37 -43 -46 -47 -48 0
-37 -44 -45 -46 -47 0
-37 -44 -45 -46 -48 0
-37 -44 -45 -47 -48 0
-37 -44 -46 -47 -48 0
-37 -45 -46 -47 -48 0
-38 -39 -41 -42 -43 0
-38 -39 -41 -42 -44 0
-38 -39 -41 -42 -45 0
-38 -39 -41 -42 -46 0
-38 -39 -41 -42 -47 0
-38 -39 -41 -42 -48 0
-38 -39 -41 -43 -44 0
-38 -39 -41 -43 -45 0
-38 -39 -41 -43 -46 0
-38 -39 -41 -43 -47 0
-38 -39 -41 -43 -48 0
-38 -39 -41 -44 -45 0
-38 -39 -41 -44 -46 0
-38 -39 -41 -44 -47 0
-38 -39 -41 -44 -48 0
-38 -39 -41 -45 -46 0
-38 -39 -41 -45 -47 0
-38 -39 -41 -45 -48 0
-38 -39 -41 -46 -47 0
-38 -39 -41 -46 -48 0
-38 -39 -41 -47 -48 0
-38 -39 -42 -43 -44 0
-38 -39 -42 -43 -45 0
-38 -39 -42 -43 -46 0
-38 -39 -42 -43 -47 0
-38 -39 -42 -43 -48 0
-38 -39 -42 -44 -45 0
-38 -39 -42 -44 -46 0
-38 -39 -42 -44 -47 0
-38 -39 -42 -44 -48 0
-38 -39 -42 -45 -46 0
-38 -39 -42 -45 -47 0
-38 -39 -42 -45 -48 0
-38 -39 -42 -46 -47 0
-38 -39 -42 -46 -48 0
-38 -39 -42 -47 -48 0
-38 -39 -43 -44 -45 0
-38 -39 -43 -44 -46 0
-38 -39 -43 -44 -47 0
-38 -39 -43 -44 -48 0
-38 -39 -43 -45 -46 0
-38 -39 -43 -45 -47 0
-38 -39 -43 -45 -48 0
-38 -39 -43 -46 -47 0
-38 -39 -43 -46 -48 0
-38 -39 -43 -47 -48 0
-38 -39 -44 -45 -46 0
-38 -39 -44 -45 -47 0
-38 -39 -44 -45 -48 0
-38 -39 -44 -46 -47 0
-38 -39 -44 -46 -48 0
-38 -39 -44 -47 -48 0
-38 -39 -45 -46 -47 0
-38 -39 -45 -46 -48 0
-38 -39 -45 -47 -48 0
-38 -39 -46 -47 -48 0
-38 -41 -42 -43 -44 0
-38 -41 -42 -43 -45 0
-38 -41 -42 -43 -46 0
-38 -41 -42 -43 -47 0
-38 -41 -42 -43 -48 0
-38 -41 -42 -44 -45 0
-38 -41 -42 -44 -46 0
-38 -41 -42 -44 -47 0
-38 -41 -42 -44 -48 0
-38 -41 -42 -45 -46 0
-38 -41 -42 -45 -47 0
-38 -41 -42 -45 -48 0
-38 -41 -42 -46 -47 0
-38 -41 -42 -46 -48 0
-38 -41 -42 -47 -48 0
-38 -41 -43 -44 -45 0
-38 -41 -43 -44 -46 0
-38 -41 -43 -44 -47 0
-38 -41 -43 -44 -48 0
-38 -41 -43 -45 -46 0
-38 -41 -43 -45 -47 0
-38 -41 -43 -45 -48 0
-38 -41 -43 -46 -47 0
-38 -41 -43 -46 -48 0
-38 -41 -43 -47 -48 0
-38 -41 -44 -45 -46 0
-38 -41 -44 -45 -47 0
-38 -41 -44 -45 -48 0
-38 -41 -44 -46 -47 0
-38 -41 -44 -46 -48 0
-38 -41 -44 -47 -48 0
-38 -41 -45 -46 -47 0
-38 -41 -45 -46 -48 0
-38 -41 -45 -47 -48 0
-38 -41 -46 -47 -48 0
-38 -42 -43 -44 -45 0
-38 -42 -43 -44 -46 0
-38 -42 -43 -44 -47 0
-38 -42 -43 -44 -48 0
-38 -42 -43 -45 -46 0
-38 -42 -43 -45 -47 0
-38 -42 -43 -45 -48 0
-38 -42 -43 -46 -47 0
-38 -42 -43 -46 -48 0
-38 -42 -43 -47 -48 0
-38 -42 -44 -45 -46 0
-38 -42 -44 -45 -47 0
-38 -42 -44 -45 -48 0
-38 -42 -44 -46 -47 0
-38 -42 -44 -46 -48 0
-38 -42 -44 -47 -48 0
-38 -42 -45 -46 -47 0
-38 -42 -45 -46 -48 0
-38 -42 -45 -47 -48 0
-38 -42 -46 -47 -48 0
-38 -43 -44 -45 -46 0
-38 -43 -44 -45 -47 0
-38 -43 -44 -45 -48 0
-38 -43 -44 -46 -47 0
-38 -43 -44 -46 -48 0
-38 -43 -44 -47 -48 0
-38 -43 -45 -46 -47 0
-38 -43 -45 -46 -48 0
-38 -43 -45 -47 -48 0
-38 -43 -46 -47 -48 0
-38 -44 -45 -46 -47 0
-38 -44 -45 -46 -48 0
-38 -44 -45 -47 -48 0
-38 -44 -46 -47 -48 0
-38 -45 -46 -47 -48 0
-39 -41 -42 -43 -44 0
-39 -41 -42 -43 -45 0
-39 -41 -42 -43 -46 0
-39 -41 -42 -43 -47 0
-39 -41 -42 -43 -48 0
-39 -41 -42 -44 -45 0
-39 -41 -42 -44 -46 0
-39 -41 -42 -44 -47 0
-39 -41 -42 -44 -48 0
-39 -41 -42 -45 -46 0
-39 -41 -42 -45 -47 0
-39 -41 -42 -45 -48 0
-39 -41 -42 -46 -47 0
-39 -41 -42 -46 -48 0
-39 -41 -42 -47 -48 0
-39 -41 -43 -44 -45 0
-39 -41 -43 -44 -46 0
-39 -41 -43 -44 -47 0
-39 -41 -43 -44 -48 0
-39 -41 -43 -45 -46 0
-39 -41 -43 -45 -47 0
-39 -41 -43 -45 -48 0
-39 -41 -43 -46 -47 0
-39 -41 -43 -46 -48 0
-39 -41 -43 -47 -48 0
-39 -41 -44 -45 -46 0
-39 -41 -44 -45 -47 0
-39 -41 -44 -45 -48 0
-39 -41 -44 -46 -47 0
-39 -41 -44 -46 -48 0
-39 -41 -44 -47 -48 0
-39 -41 -45 -46 -47 0
-39 -41 -45 -46 -48 0
-39 -41 -45 -47 -48 0
-39 -41 -46 -47 -48 0
-39 -42 -43 -44 -45 0
-39 -42 -43 -44 -46 0
-39 -42 -43 -44 -47 0
-39 -42 -43 -44 -48 0
-39 -42 -43 -45 -46 0
-39 -42 -43 -45 -47 0
-39 -42 -43 -45 -48 0
-39 -42 -43 -46 -47 0
-39 -42 -43 -46 -48 0
-39 -42 -43 -47 -48 0
-39 -42 -44 -45 -46 0
-39 -42 -44 -45 -47 0
-39 -42 -44 -45 -48 0
-39 -42 -44 -46 -47 0
-39 -42 -44 -46 -48 0
-39 -42 -44 -47 -48 0
-39 -42 -45 -46 -47 0
-39 -42 -45 -46 -48 0
-39 -42 -45 -47 -48 0
-39 -42 -46 -47 -48 0
-39 -43 -44 -45 -46 0
-39 -43 -44 -45 -47 0
-39 -43 -44 -45 -48 0
-39 -43 -44 -46 -47 0
-39 -43 -44 -46 -48 0
-39 -43 -44 -47 -48 0
-39 -43 -45 -46 -47 0
-39 -43 -45 -46 -48 0
-39 -43 -45 -47 -48 0
-39 -43 -46 -47 -48 0
-39 -44 -45 -46 -47 0
-39 -44 -45 -46 -48 0
-39 -44 -45 -47 -48 0
-39 -44 -46 -47 -48 0
-39 -45 -46 -47 -48 0
-41 -42 -43 -44 -45 0
-41 -42 -43 -44 -46 0
-41 -42 -43 -44 -47 0
-41 -42 -43 -44 -48 0
-41 -42 -43 -45 -46 0
-41 -42 -43 -45 -47 0
-41 -42 -43 -45 -48 0
-41 -42 -43 -46 -47 0
-41 -42 -43 -46 -48 0
-41 -42 -43 -47 -48 0
-41 -42 -44 -45 -46 0
-41 -42 -44 -45 -47 0
-41 -42 -44 -45 -48 0
-41 -42 -44 -46 -47 0
-41 -42 -44 -46 -48 0
-41 -42 -44 -47 -48 0
-41 -42 -45 -46 -47 0
-41 -42 -45 -46 -48 0
-41 -42 -45 -47 -48 0
-41 -42 -46 -47 -48 0
-41 -43 -44 -45 -46 0
-41 -43 -44 -45 -47 0
-41 -43 -44 -45 -48 0
-41 -43 -44 -46 -47 0
-41 -43 -44 -46 -48 0
-41 -43 -44 -47 -48 0
-41 -43 -45 -46 -47 0
-41 -43 -45 -46 -48 0
-41 -43 -45 -47 -48 0
-41 -43 -46 -47 -48 0
-41 -44 -45 -46 -47 0
-41 -44 -45 -46 -48 0
-41 -44 -45 -47 -48 0
-41 -44 -46 -47 -48 0
-41 -45 -46 -47 -48 0
-42 -43 -44 -45 -46 0
-42 -43 -44 -45 -47 0
-42 -43 -44 -45 -48 0
-42 -43 -44 -46 -47 0
-42 -43 -44 -46 -48 0
-42 -43 -44 -47 -48 0
-42 -43 -45 -46 -47 0
-42 -43 -45 -46 -48 0
-42 -43 -45 -47 -48 0
-42 -43 -46 -47 -48 0
-42 -44 -45 -46 -47 0
-42 -44 -45 -46 -48 0
-42 -44 -45 -47 -48 0
-42 -44 -46 -47 -48 0
-42 -45 -46 -47 -48 0
-43 -44 -45 -46 -47 0
-43 -44 -45 -46 -48 0
-43 -44 -45 -47 -48 0
-43 -44 -46 -47 -48 0
-43 -45 -46 -47 -48 0
-44 -45 -46 -47 -48 0
49 50 51 52 54 55 56 57 0
49 50 51 52 54 55 56 58 0
49 50 51 52 54 55 56 59 0
49 50 51 52 54 55 56 60 0
49 50 51 52 54 55 57 58 0
49 50 51 52 54 55 57 59 0
49 50 51 52 54 55 57 60 0
49 50 51 52 54 55 58 59 0
49 50 51 52 54 55 58 60 0
49 50 51 52 54 55 59 60 0
49 50 51 52 54 56 57 58 0
49 50 51 52 54 56 57 59 0
49 50 51 52 54 56 57 60 0
49 50 51 52 54 56 58 59 0
49 50 51 52 54 56 58 60 0
49 50 51 52 54 56 59 60 0
49 50 51 52 54 57 58 59 0
49 50 51 52 54 57 58 60 0
49 50 51 52 54 57 59 60 0
49 50 51 52 54 58 59 60 0
49 50 51 52 55 56 57 58 0
49 50 51 52 55 56 57 59 0
49 50 51 52 55 56 57 60 0
49 50 51 52 55 56 58 59 0
49 50 51 52 55 56 58 60 0
49 50 51 52 55 56 59 60 0
49 50 51 52 55 57 58 59 0
49 50 51 52 55 57 58 60 0
49 50 51 52 55 57 59 60 0
49 50 51 52 55 58 59 60 0
49 50 51 52 56 57 58 59 0
49 50 51 52 56 57 58 60 0
49 50 51 52 56 57 59 60 0
49 50 51 52 56 58 59 60 0
49 50 51 52 57 58 59 60 0
49 50 51 54 55 56 57 58 0
49 50 51 54 55 56 57 59 0
49 50 51 54 55 56 57 60 0
49 50 51 54 55 56 58 59 0
49 50 51 54 55 56 58 60 0
49 50 51 54 55 56 59 60 0
49 50 51 54 55 57 58 59 0
49 50 51 54 55 57 58 60 0
49 50 51 54 55 57 59 60 0
49 50 51 54 55 58 59 60 0
49 50 51 54 56 57 58 59 0
49 50 51 54 56 57 58 60 0
49 50 51 54 56 57 59 60 0
49 50 51 54 56 58 59 60 0
49 50 51 54 57 58 59 60 0
49 50 51 55 56 57 58 59 0
49 50 51 55 56 57 58 60 0
49 50 51 55 56 57 59 60 0
49 50 51 55 56 58 59 60 0
49 50 51 55 57 58 59 60 0
49 50 51 56 57 58 59 60 0
49 50 52 54 55 56 57 58 0
49 50 52 54 55 56 57 59 0
49 50 52 54 55 56 57 60 0
49 50 52 54 55 56 58 59 0
49 50 52 54 55 56 58 60 0
49 50 52 54 55 56 59 60 0
49 50 52 54 55 57 58 59 0
49 50 52 54 55 57 58 60 0
49 50 52 54 55 57 59 60 0
49 50 52 54 55 58 59 60 0
49 50 52 54 56 57 58 59 0
49 50 52 54 56 57 58 60 0
49 50 52 54 56 57 59 60 0
49 50 52 54 56 58 59 60 0
49 50 52 54 57 58 59 60 0
49 50 52 55 56 57 58 59 0
49 50 52 55 56 57 58 60 0
49 50 52 55 56 57 59 60 0
49 50 52 55 56 58 59 60 0
49 50 52 55 57 58 59 60 0
49 50 52 56 57 58 59 60 0
49 50 54 55 56 57 58 59 0
49 50 54 55 56 57 58 60 0
49 50 54 55 56 57 59 60 0
49 50 54 55 56 58 59 60 0
49 50 54 55 57 58 59 60 0
49 50 54 56 57 58 59 60 0
49 50 55 56 57 58 59 60 0
49 51 52 54 55 56 57 58 0
49 51 52 54 55 56 57 59 0
49 51 52 54 55 56 57 60 0
49 51 52 54 55 56 58 59 0
49 51 52 54 55 56 58 60 0
49 51 52 54 55 56 59 60 0
49 51 52 54 55 57 58 59 0
49 51 52 54 55 57 58 60 0
49 51 52 54 55 57 59 60 0
49 51 52 54 55 58 59 60 0
49 51 52 54 56 57 58 59 0
49 51 52 54 56 57 58 60 0
49 51 52 54 56 57 59 60 0
49 51 52 54 56 58 59 60 0
49 51 52 54 57 58 59 60 0
49 51 52 55 56 57 58 59 0
49 51 52 55 56 57 58 60 0
49 51 52 55 56 57 59 60 0
49 51 52 55 56 58 59 60 0
49 51 52 55 57 58 59 60 0
49 51 52 56 57 58 59 60 0
49 51 54 55 56 57 58 59 0
49 51 54 55 56 57 58 60 0
49 51 54 55 56 57 59 60 0
49 51 54 55 56 58 59 60 0
49 51 54 55 57 58 59 60 0
49 51 54 56 57 58 59 60 0
49 51 55 56 57 58 59 60 0
49 52 54 55 56 57 58 59 0
49 52 54 55 56 57 58 60 0
49 52 54 55 56 57 59 60 0
49 52 54 55 56 58 59 60 0
49 52 54 55 57 58 59 60 0
49 52 54 56 57 58 59 60 0
49 52 55 56 57 58 59 60 0
49 54 55 56 57 58 59 60 0
50 51 52 54 55 56 57 58 0
50 51 52 54 55 56 57 59 0
50 51 52 54 55 56 57 60 0
50 51 52 54 55 56 58 59 0
50 51 52 54 55 56 58 60 0
50 51 52 54 55 56 59 60 0
50 51 52 54 55 57 58 59 0
50 51 52 54 55 57 58 60 0
50 51 52 54 55 57 59 60 0
50 51 52 54 55 58 59 60 0
50 51 52 54 56 57 58 59 0
50 51 52 54 56 57 58 60 0
50 51 52 54 56 57 59 60 0
50 51 52 54 56 58 59 60 0
50 51 52 54 57 58 59 60 0
50 51 52 55 56 57 58 59 0
50 51 52 55 56 57 58 60 0
50 51 52 55 56 57 59 60 0
50 51 52 55 56 58 59 60 0
50 51 52 55 57 58 59 60 0
50 51 52 56 57 58 59 60 0
50 51 54 55 56 57 58 59 0
50 51 54 55 56 57 58 60 0
50 51 54 55 56 57 59 60 0
50 51 54 55 56 58 59 60 0
50 51 54 55 57 58 59 60 0
50 51 54 56 57 58 59 60 0
50 51 55 56 57 58 59 60 0
50 52 54 55 56 57 58 59 0
50 52 54 55 56 57 58 60 0
50 52 54 55 56 57 59 60 0
50 52 54 55 56 58 59 60 0
50 52 54 55 57 58 59 60 0
50 52 54 56 57 58 59 60 0
50 52 55 56 57 58 59 60 0
50 54 55 56 57 58 59 60 0
51 52 54 55 56 57 58 59 0
51 52 54 55 56 57 58 60 0
51 52 54 55 56 57 59 60 0
51 52 54 55 56 58 59 60 0
51 52 54 55 57 58 59 60 0
51 52 54 56 57 58 59 60 0
51 52 55 56 57 58 59 60 0
51 54 55 56 57 58 59 60 0
52 54 55 56 57 58 59 60 0
-49 -50 -51 -52 -54 0
-49 -50 -51 -52 -55 0
-49 -50 -51 -52 -56 0
-49 -50 -51 -52 -57 0
-49 -50 -51 -52 -58 0
-49 -50 -51 -52 -59 0
-49 -50 -51 -52 -60 0
-49 -50 -51 -54 -55 0
-49 -50 -51 -54 -56 0
-49 -50 -51 -54 -57 0
-49 -50 -51 -54 -58 0
-49 -50 -51 -54 -59 0
-49 -50 -51 -54 -60 0
-49 -50 -51 -55 -56 0
-49 -50 -51 -55 -57 0
-49 -50 -51 -55 -58 0
-49 -50 -51 -55 -59 0
-49 -50 -51 -55 -60 0
-49 -50 -51 -56 -57 0
-49 -50 -51 -56 -58 0
-49 -50 -51 -56 -59 0
-49 -50 -51 -56 -60 0
-49 -50 -51 -57 -58 0
-49 -50 -51 -57 -59 0
-49 -50 -51 -57 -60 0
-49 -50 -51 -58 -59 0
-49 -50 -51 -58 -60 0
-49 -50 -51 -59 -60 0
-49 -50 -52 -54 -55 0
-49 -50 -52 -54 -56 0
-49 -50 -52 -54 -57 0
-49 -50 -52 -54 -58 0
-49 -50 -52 -54 -59 0
-49 -50 -52 -54 -60 0
-49 -50 -52 -55 -56 0
-49 -50 -52 -55 -57 0
-49 -50 -52 -55 -58 0
-49 -50 -52 -55 -59 0
-49 -50 -52 -55 -60 0
-49 -50 -52 -56 -57 0
-49 -50 -52 -56 -58 0
-49 -50 -52 -56 -59 0
-49 -50 -52 -56 -60 0
-49 -50 -52 -57 -58 0
-49 -50 -52 -57 -59 0
-49 -50 -52 -57 -60 0
-49 -50 -52 -58 -59 0
-49 -50 -52 -58 -60 0
-49 -50 -52 -59 -60 0
-49 -50 -54 -55 -56 0
-49 -50 -54 -55 -57 0
-49 -50 -54 -55 -58 0
-49 -50 -54 -55 -59 0
-49 -50 -54 -55 -60 0
-49 -50 -54 -56 -57 0
-49 -50 -54 -56 -58 0
-49 -50 -54 -56 -59 0
-49 -50 -54 -56 -60 0
-49 -50 -54 -57 -58 0
-49 -50 -54 -57 -59 0
-49 -50 -54 -57 -60 0
-49 -50 -54 -58 -59 0
-49 -50 -54 -58 -60 0
-49 -50 -54 -59 -60 0
-49 -50 -55 -56 -57 0
-49 -50 -55 -56 -58 0
-49 -50 -55 -56 -59 0
-49 -50 -55 -56 -60 0
-49 -50 -55 -57 -58 0
-49 -50 -55 -57 -59 0
-49 -50 -55 -57 -60 0
-49 -50 -55 -58 -59 0
-49 -50 -55 -58 -60 0
-49 -50 -55 -59 -60 0
-49 -50 -56 -57 -58 0
-49 -50 -56 -57 -59 0
-49 -50 -56 -57 -60 0
-49 -50 -56 -58 -59 0
-49 -50 -56 -58 -60 0
-49 -50 -56 -59 -60 0
-49 -50 -57 -58 -59 0
-49 -50 -57 -58 -60 0
-49 -50 -57 -59 -60 0
-49 -50 -58 -59 -60 0
-49 -51 -52 -54 -55 0
-49 -51 -52 -54 -56 0
-49 -51 -52 -54 -57 0
-49 -51 -52 -54 -58 0
-49 -51 -52 -54 -59 0
-49 -51 -52 -54 -60 0
-49 -51 -52 -55 -56 0
-49 -51 -52 -55 -57 0
-49 -51 -52 -55 -58 0
-49 -51 -52 -55 -59 0
-49 -51 -52 -55 -60 0
-49 -51 -52 -56 -57 0
-49 -51 -52 -56 -58 0
-49 -51 -52 -56 -59 0
-49 -51 -52 -56 -60 0
-49 -51 -52 -57 -58 0
-49 -51 -52 -57 -59 0
-49 -51 -52 -57 -60 0
-49 -51 -52 -58 -59 0
-49 -51 -52 -58 -60 0
-49 -51 -52 -59 -60 0
-49 -51 -54 -55 -56 0
-49 -51 -54 -55 -57 0
-49 -51 -54 -55 -58 0
-49 -51 -54 -55 -59 0
-49 -51 -54 -55 -60 0
-49 -51 -54 -56 -57 0
-49 -51 -54 -56 -58 0
-49 -51 -54 -56 -59 0
-49 -51 -54 -56 -60 0
-49 -51 -54 -57 -58 0
-49 -51 -54 -57 -59 0
-49 -51 -54 -57 -60 0
-49 -51 -54 -58 -59 0
-49 -51 -54 -58 -60 0
-49 -51 -54 -59 -60 0
-49 -51 -55 -56 -57 0
-49 -51 -55 -56 -58 0
-49 -51 -55 -56 -59 0
-49 -51 -55 -56 -60 0
-49 -51 -55 -57 -58 0
-49 -51 -55 -57 -59 0
-49 -51 -55 -57 -60 0
-49 -51 -55 -58 -59 0
-49 -51 -55 -58 -60 0
-49 -51 -55 -59 -60 0
-49 -51 -56 -57 -58 0
-49 -51 -56 -57 -59 0
-49 -51 -56 -57 -60 0
-49 -51 -56 -58 -59 0
-49 -51 -56 -58 -60 0
-49 -51 -56 -59 -60 0
-49 -51 -57 -58 -59 0
-49 -51 -57 -58 -60 0
-49 -51 -57 -59 -60 0
-49 -51 -58 -59 -60 0
-49 -52 -54 -55 -56 0
-49 -52 -54 -55 -57 0
-49 -52 -54 -55 -58 0
-49 -52 -54 -55 -59 0
-49 -52 -54 -55 -60 0
-49 -52 -54 -56 -57 0
-49 -52 -54 -56 -58 0
-49 -52 -54 -56 -59 0
-49 -52 -54 -56 -60 0
-49 -52 -54 -57 -58 0
-49 -52 -54 -57 -59 0
-49 -52 -54 -57 -60 0
-49 -52 -54 -58 -59 0
-49 -52 -54 -58 -60 0
-49 -52 -54 -59 -60 0
-49 -52 -55 -56 -57 0
-49 -52 -55 -56 -58 0
-49 -52 -55 -56 -59 0
-49 -52 -55 -56 -60 0
-49 -52 -55 -57 -58 0
-49 -52 -55 -57 -59 0
-49 -52 -55 -57 -60 0
-49 -52 -55 -58 -59 0
-49 -52 -55 -58 -60 0
-49 -52 -55 -59 -60 0
-49 -52 -56 -57 -58 0
-49 -52 -56 -57 -59 0
-49 -52 -56 -57 -60 0
-49 -52 -56 -58 -59 0
-49 -52 -56 -58 -60 0
-49 -52 -56 -59 -60 0
-49 -52 -57 -58 -59 0
-49 -52 -57 -58 -60 0
-49 -52 -57 -59 -60 0
-49 -52 -58 -59 -60 0
-49 -54 -55 -56 -57 0
-49 -54 -55 -56 -58 0
-49 -54 -55 -56 -59 0
-49 -54 -55 -56 -60 0
-49 -54 -55 -57 -58 0
-49 -54 -55 -57 -59 0
-49 -54 -55 -57 -60 0
-49 -54 -55 -58 -59 0
-49 -54 -55 -58 -60 0
-49 -54 -55 -59 -60 0
-49 -54 -56 -57 -58 0
-49 -54 -56 -57 -59 0
-49 -54 -56 -57 -60 0
-49 -54 -56 -58 -59 0
-49 -54 -56 -58 -60 0
-49 -54 -56 -59 -60 0
-49 -54 -57 -58 -59 0
-49 -54 -57 -58 -60 0
-49 -54 -57 -59 -60 0
-49 -54 -58 -59 -60 0
-49 -55 -56 -57 -58 0
-49 -55 -56 -57 -59 0
-49 -55 -56 -57 -60 0
-49 -55 -56 -58 -59 0
-49 -55 -56 -58 -60 0
-49 -55 -56 -59 -60 0
-49 -55 -57 -58 -59 0
-49 -55 -57 -58 -60 0
-49 -55 -57 -59 -60 0
-49 -55 -58 -59 -60 0
-49 -56 -57 -58 -59 0
-49 -56 -57 -58 -60 0
-49 -56 -57 -59 -60 0
-49 -56 -58 -59 -60 0
-49 -57 -58 -59 -60 0
-50 -51 -52 -54 -55 0
-50 -51 -52 -54 -56 0
-50 -51 -52 -54 -57 0
-50 -51 -52 -54 -58 0
-50 -51 -52 -54 -59 0
-50 -51 -52 -54 -60 0
-50 -51 -52 -55 -56 0
-50 -51 -52 -55 -57 0
-50 -51 -52 -55 -58 0
-50 -51 -52 -55 -59 0
-50 -51 -52 -55 -60 0
-50 -51 -52 -56 -57 0
-50 -51 -52 -56 -58 0
-50 -51 -52 -56 -59 0
-50 -51 -52 -56 -60 0
-50 -51 -52 -57 -58 0
-50 -51 -52 -57 -59 0
-50 -51 -52 -57 -60 0
-50 -51 -52 -58 -59 0
-50 -51 -52 -58 -60 0
-50 -51 -52 -59 -60 0
-50 -51 -54 -55 -56 0
-50 -51 -54 -55 -57 0
-50 -51 -54 -55 -58 0
-50 -51 -54 -55 -59 0
-50 -51 -54 -55 -60 0
-50 -51 -54 -56 -57 0
-50 -51 -54 -56 -58 0
-50 -51 -54 -56 -59 0
-50 -51 -54 -56 -60 0
-50 -51 -54 -57 -58 0
-50 -51 -54 -57 -59 0
-50 -51 -54 -57 -60 0
-50 -51 -54 -58 -59 0
-50 -51 -54 -58 -60 0
-50 -51 -54 -59 -60 0
-50 -51 -55 -56 -57 0
-50 -51 -55 -56 -58 0
-50 -51 -55 -56 -59 0
-50 -51 -55 -56 -60 0
-50 -51 -55 -57 -58 0
-50 -51 -55 -57 -59 0
-50 -51 -55 -57 -60 0
-50 -51 -55 -58 -59 0
-50 -51 -55 -58 -60 0
-50 -51 -55 -59 -60 0
-50 -51 -56 -57 -58 0
-50 -51 -56 -57 -59 0
-50 -51 -56 -57 -60 0
-50 -51 -56 -58 -59 0
-50 -51 -56 -58 -60 0
-50 -51 -56 -59 -60 0
-50 -51 -57 -58 -59 0
-50 -51 -57 -58 -60 0
-50 -51 -57 -59 -60 0
-50 -51 -58 -59 -60 0
-50 -52 -54 -55 -56 0
-50 -52 -54 -55 -57 0
-50 -52 -54 -55 -58 0
-50 -52 -54 -55 -59 0
-50 -52 -54 -55 -60 0
-50 -52 -54 -56 -57 0
-50 -52 -54 -56 -58 0
-50 -52 -54 -56 -59 0
-50 -52 -54 -56 -60 0
-50 -52 -54 -57 -58 0
-50 -52 -54 -57 -59 0
-50 -52 -54 -57 -60 0
-50 -52 -54 -58 -59 0
-50 -52 -54 -58 -60 0
-50 -52 -54 -59 -60 0
-50 -52 -55 -56 -57 0
-50 -52 -55 -56 -58 0
-50 -52 -55 -56 -59 0
-50 -52 -55 -56 -60 0
-50 -52 -55 -57 -58 0
-50 -52 -55 -57 -59 0
-50 -52 -55 -57 -60 0
-50 -52 -55 -58 -59 0
-50 -52 -55 -58 -60 0
-50 -52 -55 -59 -60 0
-50 -52 -56 -57 -58 0
-50 -52 -56 -57 -59 0
-50 -52 -56 -57 -60 0
-50 -52 -56 -58 -59 0
-50 -52 -56 -58 -60 0
-50 -52 -56 -59 -60 0
-50 -52 -57 -58 -59 0
-50 -52 -57 -58 -60 0
-50 -52 -57 -59 -60 0
-50 -52 -58 -59 -60 0
-50 -54 -55 -56 -57 0
-50 -54 -55 -56 -58 0
-50 -54 -55 -56 -59 0
-50 -54 -55 -56 -60 0
-50 -54 -55 -57 -58 0
-50 -54 -55 -57 -59 0
-50 -54 -55 -57 -60 0
-50 -54 -55 -58 -59 0
-50 -54 -55 -58 -60 0
-50 -54 -55 -59 -60 0
-50 -54 -56 -57 -58 0
-50 -54 -56 -57 -59 0
-50 -54 -56 -57 -60 0
-50 -54 -56 -58 -59 0
-50 -54 -56 -58 -60 0
-50 -54 -56 -59 -60 0
-50 -54 -57 -58 -59 0
-50 -54 -57 -58 -60 0
-50 -54 -57 -59 -60 0
-50 -54 -58 -59 -60 0
-50 -55 -56 -57 -58 0
-50 -55 -56 -57 -59 0
-50 -55 -56 -57 -60 0
-50 -55 -56 -58 -59 0
-50 -55 -56 -58 -60 0
-50 -55 -56 -59 -60 0
-50 -55 -57 -58 -59 0
-50 -55 -57 -58 -60 0
-50 -55 -57 -59 -60 0
-50 -55 -58 -59 -60 0
-50 -56 -57 -58 -59 0
-50 -56 -57 -58 -60 0
-50 -56 -57 -59 -60 0
-50 -56 -58 -59 -60 0
-50 -57 -58 -59 -60 0
-51 -52 -54 -55 -56 0
-51 -52 -54 -55 -57 0
-51 -52 -54 -55 -58 0
-51 -52 -54 -55 -59 0
-51 -52 -54 -55 -60 0
-51 -52 -54 -56 -57 0
-51 -52 -54 -56 -58 0
-51 -52 -54 -56 -59 0
-51 -52 -54 -56 -60 0
-51 -52 -54 -57 -58 0
-51 -52 -54 -57 -59 0
-51 -52 -54 -57 -60 0
-51 -52 -54 -58 -59 0
-51 -52 -54 -58 -60 0
-51 -52 -54 -59 -60 0
-51 -52 -55 -56 -57 0
-51 -52 -55 -56 -58 0
-51 -52 -55 -56 -59 0
-51 -52 -55 -56 -60 0
-51 -52 -55 -57 -58 0
-51 -52 -55 -57 -59 0
-51 -52 -55 -57 -60 0
-51 -52 -55 -58 -59 0
-51 -52 -55 -58 -60 0
-51 -52 -55 -59 -60 0
-51 -52 -56 -57 -58 0
-51 -52 -56 -57 -59 0
-51 -52 -56 -57 -60 0
-51 -52 -56 -58 -59 0
-51 -52 -56 -58 -60 0
-51 -52 -56 -59 -60 0
-51 -52 -57 -58 -59 0
-51 -52 -57 -58 -60 0
-51 -52 -57 -59 -60 0
-51 -52 -58 -59 -60 0
-51 -54 -55 -56 -57 0
-51 -54 -55 -56 -58 0
-51 -54 -55 -56 -59 0
-51 -54 -55 -56 -60 0
-51 -54 -55 -57 -58 0
-51 -54 -55 -57 -59 0
-51 -54 -55 -57 -60 0
-51 -54 -55 -58 -59 0
-51 -54 -55 -58 -60 0
-51 -54 -55 -59 -60 0
-51 -54 -56 -57 -58 0
-51 -54 -56 -57 -59 0
-51 -54 -56 -57 -60 0
-51 -54 -56 -58 -59 0
-51 -54 -56 -58 -60 0
-51 -54 -56 -59 -60 0
-51 -54 -57 -58 -59 0
-51 -54 -57 -58 -60 0
-51 -54 -57 -59 -60 0
-51 -54 -58 -59 -60 0
-51 -55 -56 -57 -58 0
-51 -55 -56 -57 -59 0
-51 -55 -56 -57 -60 0
-51 -55 -56 -58 -59 0
-51 -55 -56 -58 -60 0
-51 -55 -56 -59 -60 0
-51 -55 -57 -58 -59 0
-51 -55 -57 -58 -60 0
-51 -55 -57 -59 -60 0
-51 -55 -58 -59 -60 0
-51 -56 -57 -58 -59 0
-51 -56 -57 -58 -60 0
-51 -56 -57 -59 -60 0
-51 -56 -58 -59 -60 0
-51 -57 -58 -59 -60 0
-52 -54 -55 -56 -57 0
-52 -54 -55 -56 -58 0
-52 -54 -55 -56 -59 0
-52 -54 -55 -56 -60 0
-52 -54 -55 -57 -58 0
-52 -54 -55 -57 -59 0
-52 -54 -55 -57 -60 0
-52 -54 -55 -58 -59 0
-52 -54 -55 -58 -60 0
-52 -54 -55 -59 -60 0
-52 -54 -56 -57 -58 0
-52 -54 -56 -57 -59 0
-52 -54 -56 -57 -60 0
-52 -54 -56 -58 -59 0
-52 -54 -56 -58 -60 0
-52 -54 -56 -59 -60 0
-52 -54 -57 -58 -59 0
-52 -54 -57 -58 -60 0
-52 -54 -57 -59 -60 0
-52 -54 -58 -59 -60 0
-52 -55 -56 -57 -58 0
-52 -55 -56 -57 -59 0
-52 -55 -56 -57 -60 0
-52 -55 -56 -58 -59 0
-52 -55 -56 -58 -60 0
-52 -55 -56 -59 -60 0
-52 -55 -57 -58 -59 0
-52 -55 -57 -58 -60 0
-52 -55 -57 -59 -60 0
-52 -55 -58 -59 -60 0
-52 -56 -57 -58 -59 0
-52 -56 -57 -58 -60 0
-52 -56 -57 -59 -60 0
-52 -56 -58 -59 -60 0
-52 -57 -58 -59 -60 0
-54 -55 -56 -57 -58 0
-54 -55 -56 -57 -59 0
-54 -55 -56 -57 -60 0
-54 -55 -56 -58 -59 0
-54 -55 -56 -58 -60 0
-54 -55 -56 -59 -60 0
-54 -55 -57 -58 -59 0
-54 -55 -57 -58 -60 0
-54 -55 -57 -59 -60 0
-54 -55 -58 -59 -60 0
-54 -56 -57 -58 -59 0
-54 -56 -57 -58 -60 0
-54 -56 -57 -59 -60 0
-54 -56 -58 -59 -60 0
-54 -57 -58 -59 -60 0
-55 -56 -57 -58 -59 0
-55 -56 -57 -58 -60 0
-55 -56 -57 -59 -60 0
-55 -56 -58 -59 -60 0
-55 -57 -58 -59 -60 0
-56 -57 -58 -59 -60 0
61 62 63 64 65 67 68 69 0
61 62 63 64 65 67 68 70 0
61 62 63 64 65 67 68 71 0
61 62 63 64 65 67 68 72 0
61 62 63 64 65 67 69 70 0
61 62 63 64 65 67 69 71 0
61 62 63 64 65 67 69 72 0
61 62 63 64 65 67 70 71 0
61 62 63 64 65 67 70 72 0
61 62 63 64 65 67 71 72 0
61 62 63 64 65 68 69 70 0
61 62 63 64 65 68 69 71 0
61 62 63 64 65 68 69 72 0
61 62 63 64 65 68 70 71 0
61 62 63 64 65 68 70 72 0
61 62 63 64 65 68 71 72 0
61 62 63 64 65 69 70 71 0
61 62 63 64 65 69 70 72 0
61 62 63 64 65 69 71 72 0
61 62 63 64 65 70 71 72 0
61 62 63 64 67 68 69 70 0
61 62 63 64 67 68 69 71 0
61 62 63 64 67 68 69 72 0
61 62 63 64 67 68 70 71 0
61 62 63 64 67 68 70 72 0
61 62 63 64 67 68 71 72 0
61 62 63 64 67 69 70 71 0
61 62 63 64 67 69 70 72 0
61 62 63 64 67 69 71 72 0
61 62 63 64 67 70 71 72 0
61 62 63 64 68 69 70 71 0
61 62 63 64 68 69 70 72 0
61 62 63 64 68 69 71 72 0
61 62 63 64 68 70 71 72 0
61 62 63 64 69 70 71 72 0
61 62 63 65 67 68 69 70 0
61 62 63 65 67 68 69 71 0
61 62 63 65 67 68 69 72 0
61 62 63 65 67 68 70 71 0
61 62 63 65 67 68 70 72 0
61 62 63 65 67 68 71 72 0
61 62 63 65 67 69 70 71 0
61 62 63 65 67 69 70 72 0
61 62 63 65 67 69 71 72 0
61 62 63 65 67 70 71 72 0
61 62 63 65 68 69 70 71 0
61 62 63 65 68 69 70 72 0
61 62 63 65 68 69 71 72 0
61 62 63 65 68 70 71 72 0
61 62 63 65 69 70 71 72 0
61 62 63 67 68 69 70 71 0
61 62 63 67 68 69 70 72 0
61 62 63 67 68 69 71 72 0
61 62 63 67 68 70 71 72 0
61 62 63 67 69 70 71 72 0
61 62 63 68 69 70 71 72 0
61 62 64 65 67 68 69 70 0
61 62 64 65 67 68 69 71 0
61 62 64 65 67 68 69 72 0
61 62 64 65 67 68 70 71 0
61 62 64 65 67 68 70 72 0
61 62 64 65 67 68 71 72 0
61 62 64 65 67 69 70 71 0
61 62 64 65 67 69 70 72 0
61 62 64 65 67 69 71 72 0
61 62 64 65 67 70 71 72 0
61 62 64 65 68 69 70 71 0
61 62 64 65 68 69 70 72 0
61 62 64 65 68 69 71 72 0
61 62 64 65 68 70 71 72 0
61 62 64 65 69 70 71 72 0
61 62 64 67 68 69 70 71 0
61 62 64 67 68 69 70 72 0
61 62 64 67 68 69 71 72 0
61 62 64 67 68 70 71 72 0
61 62 64 67 69 70 71 72 0
61 62 64 68 69 70 71 72 0
61 62 65 67 68 69 70 71 0
61 62 65 67 68 69 70 72 0
61 62 65 67 68 69 71 72 0
61 62 65 67 68 70 71 72 0
61 62 65 67 69 70 71 72 0
61 62 65 68 69 70 71 72 0
61 62 67 68 69 70 71 72 0
61 63 64 65 67 68 69 70 0
61 63 64 65 67 68 69 71 0
61 63 64 65 67 68 69 72 0
61 63 64 65 67 68 70 71 0
61 63 64 65 67 68 70 72 0
61 63 64 65 67 68 71 72 0
61 63 64 65 67 69 70 71 0
61 63 64 65 67 69 70 72 0
61 63 64 65 67 69 71 72 0
61 63 64 65 67 70 71 72 0
61 63 64 65 68 69 70 71 0
61 63 64 65 68 69 70 72 0
61 63 64 65 68 69 71 72 0
61 63 64 65 68 70 71 72 0
61 63 64 65 69 70 71 72 0
61 63 64 67 68 69 70 71 0
61 63 64 67 68 69 70 72 0
61 63 64 67 68 69 71 72 0
61 63 64 67 68 70 71 72 0
61 63 64 67 69 70 71 72 0
61 63 64 68 69 70 71 72 0
61 63 65 67 68 69 70 71 0
61 63 65 67 68 69 70 72 0
61 63 65 67 68 69 71 72 0
61 63 65 67 68 70 71 72 0
61 63 65 67 69 70 71 72 0
61 63 65 68 69 70 71 72 0
61 63 67 68 69 70 71 72 0
61 64 65 67 68 69 70 71 0
61 64 65 67 68 69 70 72 0
61 64 65 67 68 69 71 72 0
61 64 65 67 68 70 71 72 0
61 64 65 67 69 70 71 72 0
61 64 65 68 69 70 71 72 0
61 64 67 68 69 70 71 72 0
61 65 67 68 69 70 71 72 0
62 63 64 65 67 68 69 70 0
62 63 64 65 67 68 69 71 0
62 63 64 65 67 68 69 72 0
62 63 64 65 67 68 70 71 0
62 63 64 65 67 68 70 72 0
62 63 64 65 67 68 71 72 0
62 63 64 65 67 69 70 71 0
62 63 64 65 67 69 70 72 0
62 63 64 65 67 69 71 72 0
62 63 64 65 67 70 71 72 0
62 63 64 65 68 69 70 71 0
62 63 64 65 68 69 70 72 0
62 63 64 65 68 69 71 72 0
62 63 64 65 68 70 71 72 0
62 63 64 65 69 70 71 72 0
62 63 64 67 68 69 70 71 0
62 63 64 67 68 69 70 72 0
62 63 64 67 68 69 71 72 0
62 63 64 67 68 70 71 72 0
62 63 64 67 69 70 71 72 0
62 63 64 68 69 70 71 72 0
62 63 65 67 68 69 70 71 0
62 63 65 67 68 69 70 72 0
62 63 65 67 68 69 71 72 0
62 63 65 67 68 70 71 72 0
62 63 65 67 69 70 71 72 0
62 63 65 68 69 70 71 72 0
62 63 67 68 69 70 71 72 0
62 64 65 67 68 69 70 71 0
62 64 65 67 68 69 70 72 0
62 64 65 67 68 69 71 72 0
62 64 65 67 68 70 71 72 0
62 64 65 67 69 70 71 72 0
62 64 65 68 69 70 71 72 0
62 64 67 68 69 70 71 72 0
62 65 67 68 69 70 71 72 0
63 64 65 67 68 69 70 71 0
63 64 65 67 68 69 70 72 0
63 64 65 67 68 69 71 72 0
63 64 65 67 68 70 71 72 0
63 64 65 67 69 70 71 72 0
63 64 65 68 69 70 71 72 0
63 64 67 68 69 70 71 72 0
63 65 67 68 69 70 71 72 0
64 65 67 68 69 70 71 72 0
-61 -62 -63 -64 -65 0
-61 -62 -63 -64 -67 0
-61 -62 -63 -64 -68 0
-61 -62 -63 -64 -69 0
-61 -62 -63 -64 -70 0
-61 -62 -63 -64 -71 0
-61 -62 -63 -64 -72 0
-61 -62 -63 -65 -67 0
-61 -62 -63 -65 -68 0
-61 -62 -63 -65 -69 0
-61 -62 -63 -65 -70 0
-61 -62 -63 -65 -71 0
-61 -62 -63 -65 -72 0
-61 -62 -63 -67 -68 0
-61 -62 -63 -67 -69 0
-61 -62 -63 -67 -70 0
-61 -62 -63 -67 -71 0
-61 -62 -63 -67 -72 0
-61 -62 -63 -68 -69 0
-61 -62 -63 -68 -70 0
-61 -62 -63 -68 -71 0
-61 -62 -63 -68 -72 0
-61 -62 -63 -69 -70 0
-61 -62 -63 -69 -71 0
-61 -62 -63 -69 -72 0
-61 -62 -63 -70 -71 0
-61 -62 -63 -70 -72 0
-61 -62 -63 -71 -72 0
-61 -62 -64 -65 -67 0
-61 -62 -64 -65 -68 0
-61 -62 -64 -65 -69 0
-61 -62 -64 -65 -70 0
-61 -62 -64 -65 -71 0
-61 -62 -64 -65 -72 0
-61 -62 -64 -67 -68 0
-61 -62 -64 -67 -69 0
-61 -62 -64 -67 -70 0
-61 -62 -64 -67 -71 0
-61 -62 -64 -67 -72 0
-61 -62 -64 -68 -69 0
-61 -62 -64 -68 -70 0
-61 -62 -64 -68 -71 0
-61 -62 -64 -68 -72 0
-61 -62 -64 -69 -70 0
-61 -62 -64 -69 -71 0
-61 -62 -64 -69 -72 0
-61 -62 -64 -70 -71 0
-61 -62 -64 -70 -72 0
-61 -62 -64 -71 -72 0
-61 -62 -65 -67 -68 0
-61 -62 -65 -67 -69 0
-61 -62 -65 -67 -70 0
-61 -62 -65 -67 -71 0
-61 -62 -65 -67 -72 0
-61 -62 -65 -68 -69 0
-61 -62 -65 -68 -70 0
-61 -62 -65 -68 -71 0
-61 -62 -65 -68 -72 0
-61 -62 -65 -69 -70 0
-61 -62 -65 -69 -71 0
-61 -62 -65 -69 -72 0
-61 -62 -65 -70 -71 0
-61 -62 -65 -70 -72 0
-61 -62 -65 -71 -72 0
-61 -62 -67 -68 -69 0
-61 -62 -67 -68 -70 0
-61 -62 -67 -68 -71 0
-61 -62 -67 -68 -72 0
-61 -62 -67 -69 -70 0
-61 -62 -67 -69 -71 0
-61 -62 -67 -69 -72 0
-61 -62 -67 -70 -71 0
-61 -62 -67 -70 -72 0
-61 -62 -67 -71 -72 0
-61 -62 -68 -69 -70 0
-61 -62 -68 -69 -71 0
-61 -62 -68 -69 -72 0
-61 -62 -68 -70 -71 0
-61 -62 -68 -70 -72 0
-61 -62 -68 -71 -72 0
-61 -62 -69 -70 -71 0
-61 -62 -69 -70 -72 0
-61 -62 -69 -71 -72 0
-61 -62 -70 -71 -72 0
-61 -63 -64 -65 -67 0
-61 -63 -64 -65 -68 0
-61 -63 -64 -65 -69 0
-61 -63 -64 -65 -70 0
-61 -63 -64 -65 -71 0
-61 -63 -64 -65 -72 0
-61 -63 -64 -67 -68 0
-61 -63 -64 -67 -69 0
-61 -63 -64 -67 -70 0
-61 -63 -64 -67 -71 0
-61 -63 -64 -67 -72 0
-61 -63 -64 -68 -69 0
-61 -63 -64 -68 -70 0
-61 -63 -64 -68 -71 0
-61 -63 -64 -68 -72 0
-61 -63 -64 -69 -70 0
-61 -63 -64 -69 -71 0
-61 -63 -64 -69 -72 0
-61 -63 -64 -70 -71 0
-61 -63 -64 -70 -72 0
-61 -63 -64 -71 -72 0
-61 -63 -65 -67 -68 0
-61 -63 -65 -67 -69 0
-61 -63 -65 -67 -70 0
-61 -63 -65 -67 -71 0
-61 -63 -65 -67 -72 0
-61 -63 -65 -68 -69 0
-61 -63 -65 -68 -70 0
-61 -63 -65 -68 -71 0
-61 -63 -65 -68 -72 0
-61 -63 -65 -69 -70 0
-61 -63 -65 -69 -71 0
-61 -63 -65 -69 -72 0
-61 -63 -65 -70 -71 0
-61 -63 -65 -70 -72 0
-61 -63 -65 -71 -72 0
-61 -63 -67 -68 -69 0
-61 -63 -67 -68 -70 0
-61 -63 -67 -68 -71 0
-61 -63 -67 -68 -72 0
-61 -63 -67 -69 -70 0
-61 -63 -67 -69 -71 0
-61 -63 -67 -69 -72 0
-61 -63 -67 -70 -71 0
-61 -63 -67 -70 -72 0
-61 -63 -67 -71 -72 0
-61 -63 -68 -69 -70 0
-61 -63 -68 -69 -71 0
-61 -63 -68 -69 -72 0
-61 -63 -68 -70 -71 0
-61 -63 -68 -70 -72 0
-61 -63 -68 -71 -72 0
-61 -63 -69 -70 -71 0
-61 -63 -69 -70 -72 0
-61 -63 -69 -71 -72 0
-61 -63 -70 -71 -72 0
-61 -64 -65 -67 -68 0
-61 -64 -65 -67 -69 0
-61 -64 -65 -67 -70 0
-61 -64 -65 -67 -71 0
-61 -64 -65 -67 -72 0
-61 -64 -65 -68 -69 0
-61 -64 -65 -68 -70 0
-61 -64 -65 -68 -71 0
-61 -64 -65 -68 -72 0
-61 -64 -65 -69 -70 0
-61 -64 -65 -69 -71 0
-61 -64 -65 -69 -72 0
-61 -64 -65 -70 -71 0
-61 -64 -65 -70 -72 0
-61 -64 -65 -71 -72 0
-61 -64 -67 -68 -69 0
-61 -64 -67 -68 -70 0
-61 -64 -67 -68 -71 0
-61 -64 -67 -68 -72 0
-61 -64 -67 -69 -70 0
-61 -64 -67 -69 -71 0
-61 -64 -67 -69 -72 0
-61 -64 -67 -70 -71 0
-61 -64 -67 -70 -72 0
-61 -64 -67 -71 -72 0
-61 -64 -68 -69 -70 0
-61 -64 -68 -69 -71 0
-61 -64 -68 -69 -72 0
-61 -64 -68 -70 -71 0
-61 -64 -68 -70 -72 0
-61 -64 -68 -71 -72 0
-61 -64 -69 -70 -71 0
-61 -64 -69 -70 -72 0
-61 -64 -69 -71 -72 0
-61 -64 -70 -71 -72 0
-61 -65 -67 -68 -69 0
-61 -65 -67 -68 -70 0
-61 -65 -67 -68 -71 0
-61 -65 -67 -68 -72 0
-61 -65 -67 -69 -70 0
-61 -65 -67 -69 -71 0
-61 -65 -67 -69 -72 0
-61 -65 -67 -70 -71 0
-61 -65 -67 -70 -72 0
-61 -65 -67 -71 -72 0
-61 -65 -68 -69 -70 0
-61 -65 -68 -69 -71 0
-61 -65 -68 -69 -72 0
-61 -65 -68 -70 -71 0
-61 -65 -68 -70 -72 0
-61 -65 -68 -71 -72 0
-61 -65 -69 -70 -71 0
-61 -65 -69 -70 -72 0
-61 -65 -69 -71 -72 0
-61 -65 -70 -71 -72 0
-61 -67 -68 -69 -70 0
-61 -67 -68 -69 -71 0
-61 -67 -68 -69 -72 0
-61 -67 -68 -70 -71 0
-61 -67 -68 -70 -72 0
-61 -67 -68 -71 -72 0
-61 -67 -69 -70 -71 0
-61 -67 -69 -70 -72 0
-61 -67 -69 -71 -72 0
-61 -67 -70 -71 -72 0
-61 -68 -69 -70 -71 0
-61 -68 -69 -70 -72 0
-61 -68 -69 -71 -72 0
-61 -68 -70 -71 -72 0
-61 -69 -70 -71 -72 0
-62 -63 -64 -65 -67 0
-62 -63 -64 -65 -68 0
-62 -63 -64 -65 -69 0
-62 -63 -64 -65 -70 0
-62 -63 -64 -65 -71 0
-62 -63 -64 -65 -72 0
-62 -63 -64 -67 -68 0
-62 -63 -64 -67 -69 0
-62 -63 -64 -67 -70 0
-62 -63 -64 -67 -71 0
-62 -63 -64 -67 -72 0
-62 -63 -64 -68 -69 0
-62 -63 -64 -68 -70 0
-62 -63 -64 -68 -71 0
-62 -63 -64 -68 -72 0
-62 -63 -64 -69 -70 0
-62 -63 -64 -69 -71 0
-62 -63 -64 -69 -72 0
-62 -63 -64 -70 -71 0
-62 -63 -64 -70 -72 0
-62 -63 -64 -71 -72 0
-62 -63 -65 -67 -68 0
-62 -63 -65 -67 -69 0
-62 -63 -65 -67 -70 0
-62 -63 -65 -67 -71 0
-62 -63 -65 -67 -72 0
-62 -63 -65 -68 -69 0
-62 -63 -65 -68 -70 0
-62 -63 -65 -68 -71 0
-62 -63 -65 -68 -72 0
-62 -63 -65 -69 -70 0
-62 -63 -65 -69 -71 0
-62 -63 -65 -69 -72 0
-62 -63 -65 -70 -71 0
-62 -63 -65 -70 -72 0
-62 -63 -65 -71 -72 0
-62 -63 -67 -68 -69 0
-62 -63 -67 -68 -70 0
-62 -63 -67 -68 -71 0
-62 -63 -67 -68 -72 0
-62 -63 -67 -69 -70 0
-62 -63 -67 -69 -71 0
-62 -63 -67 -69 -72 0
-62 -63 -67 -70 -71 0
-62 -63 -67 -70 -72 0
-62 -63 -67 -71 -72 0
-62 -63 -68 -69 -70 0
-62 -63 -68 -69 -71 0
-62 -63 -68 -69 -72 0
-62 -63 -68 -70 -71 0
-62 -63 -68 -70 -72 0
-62 -63 -68 -71 -72 0
-62 -63 -69 -70 -71 0
-62 -63 -69 -70 -72 0
-62 -63 -69 -71 -72 0
-62 -63 -70 -71 -72 0
-62 -64 -65 -67 -68 0
-62 -64 -65 -67 -69 0
-62 -64 -65 -67 -70 0
-62 -64 -65 -67 -71 0
-62 -64 -65 -67 -72 0
-62 -64 -65 -68 -69 0
-62 -64 -65 -68 -70 0
-62 -64 -65 -68 -71 0
-62 -64 -65 -68 -72 0
-62 -64 -65 -69 -70 0
-62 -64 -65 -69 -71 0
-62 -64 -65 -69 -72 0
-62 -64 -65 -70 -71 0
-62 -64 -65 -70 -72 0
-62 -64 -65 -71 -72 0
-62 -64 -67 -68 -69 0
-62 -64 -67 -68 -70 0
-62 -64 -67 -68 -71 0
-62 -64 -67 -68 -72 0
-62 -64 -67 -69 -70 0
-62 -64 -67 -69 -71 0
-62 -64 -67 -69 -72 0
-62 -64 -67 -70 -71 0
-62 -64 -67 -70 -72 0
-62 -64 -67 -71 -72 0
-62 -64 -68 -69 -70 0
-62 -64 -68 -69 -71 0
-62 -64 -68 -69 -72 0
-62 -64 -68 -70 -71 0
-62 -64 -68 -70 -72 0
-62 -64 -68 -71 -72 0
-62 -64 -69 -70 -71 0
-62 -64 -69 -70 -72 0
-62 -64 -69 -71 -72 0
-62 -64 -70 -71 -72 0
-62 -65 -67 -68 -69 0
-62 -65 -67 -68 -70 0
-62 -65 -67 -68 -71 0
-62 -65 -67 -68 -72 0
-62 -65 -67 -69 -70 0
-62 -65 -67 -69 -71 0
-62 -65 -67 -69 -72 0
-62 -65 -67 -70 -71 0
-62 -65 -67 -70 -72 0
-62 -65 -67 -71 -72 0
-62 -65 -68 -69 -70 0
-62 -65 -68 -69 -71 0
-62 -65 -68 -69 -72 0
-62 -65 -68 -70 -71 0
-62 -65 -68 -70 -72 0
-62 -65 -68 -71 -72 0
-62 -65 -69 -70 -71 0
-62 -65 -69 -70 -72 0
-62 -65 -69 -71 -72 0
-62 -65 -70 -71 -72 0
-62 -67 -68 -69 -70 0
-62 -67 -68 -69 -71 0
-62 -67 -68 -69 -72 0
-62 -67 -68 -70 -71 0
-62 -67 -68 -70 -72 0
-62 -67 -68 -71 -72 0
-62 -67 -69 -70 -71 0
-62 -67 -69 -70 -72 0
-62 -67 -69 -71 -72 0
-62 -67 -70 -71 -72 0
-62 -68 -69 -70 -71 0
-62 -68 -69 -70 -72 0
-62 -68 -69 -71 -72 0
-62 -68 -70 -71 -72 0
-62 -69 -70 -71 -72 0
-63 -64 -65 -67 -68 0
-63 -64 -65 -67 -69 0
-63 -64 -65 -67 -70 0
-63 -64 -65 -67 -71 0
-63 -64 -65 -67 -72 0
-63 -64 -65 -68 -69 0
-63 -64 -65 -68 -70 0
-63 -64 -65 -68 -71 0
-63 -64 -65 -68 -72 0
-63 -64 -65 -69 -70 0
-63 -64 -65 -69 -71 0
-63 -64 -65 -69 -72 0
-63 -64 -65 -70 -71 0
-63 -64 -65 -70 -72 0
-63 -64 -65 -71 -72 0
-63 -64 -67 -68 -69 0
-63 -64 -67 -68 -70 0
-63 -64 -67 -68 -71 0
-63 -64 -67 -68 -72 0
-63 -64 -67 -69 -70 0
-63 -64 -67 -69 -71 0
-63 -64 -67 -69 -72 0
-63 -64 -67 -70 -71 0
-63 -64 -67 -70 -72 0
-63 -64 -67 -71 -72 0
-63 -64 -68 -69 -70 0
-63 -64 -68 -69 -71 0
-63 -64 -68 -69 -72 0
-63 -64 -68 -70 -71 0
-63 -64 -68 -70 -72 0
-63 -64 -68 -71 -72 0
-63 -64 -69 -70 -71 0
-63 -64 -69 -70 -72 0
-63 -64 -69 -71 -72 0
-63 -64 -70 -71 -72 0
-63 -65 -67 -68 -69 0
-63 -65 -67 -68 -70 0
-63 -65 -67 -68 -71 0
-63 -65 -67 -68 -72 0
-63 -65 -67 -69 -70 0
-63 -65 -67 -69 -71 0
-63 -65 -67 -69 -72 0
-63 -65 -67 -70 -71 0
-63 -65 -67 -70 -72 0
-63 -65 -67 -71 -72 0
-63 -65 -68 -69 -70 0
-63 -65 -68 -69 -71 0
-63 -65 -68 -69 -72 0
-63 -65 -68 -70 -71 0
-63 -65 -68 -70 -72 0
-63 -65 -68 -71 -72 0
-63 -65 -69 -70 -71 0
-63 -65 -69 -70 -72 0
-63 -65 -69 -71 -72 0
-63 -65 -70 -71 -72 0
-63 -67 -68 -69 -70 0
-63 -67 -68 -69 -71 0
-63 -67 -68 -69 -72 0
-63 -67 -68 -70 -71 0
-63 -67 -68 -70 -72 0
-63 -67 -68 -71 -72 0
-63 -67 -69 -70 -71 0
-63 -67 -69 -70 -72 0
-63 -67 -69 -71 -72 0
-63 -67 -70 -71 -72 0
-63 -68 -69 -70 -71 0
-63 -68 -69 -70 -72 0
-63 -68 -69 -71 -72 0
-63 -68 -70 -71 -72 0
-63 -69 -70 -71 -72 0
-64 -65 -67 -68 -69 0
-64 -65 -67 -68 -70 0
-64 -65 -67 -68 -71 0
-64 -65 -67 -68 -72 0
-64 -65 -67 -69 -70 0
-64 -65 -67 -69 -71 0
-64 -65 -67 -69 -72 0
-64 -65 -67 -70 -71 0
-64 -65 -67 -70 -72 0
-64 -65 -67 -71 -72 0
-64 -65 -68 -69 -70 0
-64 -65 -68 -69 -71 0
-64 -65 -68 -69 -72 0
-64 -65 -68 -70 -71 0
-64 -65 -68 -70 -72 0
-64 -65 -68 -71 -72 0
-64 -65 -69 -70 -71 0
-64 -65 -69 -70 -72 0
-64 -65 -69 -71 -72 0
-64 -65 -70 -71 -72 0
-64 -67 -68 -69 -70 0
-64 -67 -68 -69 -71 0
-64 -67 -68 -69 -72 0
-64 -67 -68 -70 -71 0
-64 -67 -68 -70 -72 0
-64 -67 -68 -71 -72 0
-64 -67 -69 -70 -71 0
-64 -67 -69 -70 -72 0
-64 -67 -69 -71 -72 0
-64 -67 -70 -71 -72 0
-64 -68 -69 -70 -71 0
-64 -68 -69 -70 -72 0
-64 -68 -69 -71 -72 0
-64 -68 -70 -71 -72 0
-64 -69 -70 -71 -72 0
-65 -67 -68 -69 -70 0
-65 -67 -68 -69 -71 0
-65 -67 -68 -69 -72 0
-65 -67 -68 -70 -71 0
-65 -67 -68 -70 -72 0
-65 -67 -68 -71 -72 0
-65 -67 -69 -70 -71 0
-65 -67 -69 -70 -72 0
-65 -67 -69 -71 -72 0
-65 -67 -70 -71 -72 0
-65 -68 -69 -70 -71 0
-65 -68 -69 -70 -72 0
-65 -68 -69 -71 -72 0
-65 -68 -70 -71 -72 0
-65 -69 -70 -71 -72 0
-67 -68 -69 -70 -71 0
-67 -68 -69 -70 -72 0
-67 -68 -69 -71 -72 0
-67 -68 -70 -71 -72 0
-67 -69 -70 -71 -72 0
-68 -69 -70 -71 -72 0
73 74 75 76 77 78 80 81 0
73 74 75 76 77 78 80 82 0
73 74 75 76 77 78 80 83 0
73 74 75 76 77 78 80 84 0
73 74 75 76 77 78 81 82 0
73 74 75 76 77 78 81 83 0
73 74 75 76 77 78 81 84 0
73 74 75 76 77 78 82 83 0
73 74 75 76 77 78 82 84 0
73 74 75 76 77 78 83 84 0
73 74 75 76 77 80 81 82 0
73 74 75 76 77 80 81 83 0
73 74 75 76 77 80 81 84 0
73 74 75 76 77 80 82 83 0
73 74 75 76 77 80 82 84 0
73 74 75 76 77 80 83 84 0
73 74 75 76 77 81 82 83 0
73 74 75 76 77 81 82 84 0
73 74 75 76 77 81 83 84 0
73 74 75 76 77 82 83 84 0
73 74 75 76 78 80 81 82 0
73 74 75 76 78 80 81 83 0
73 74 75 76 78 80 81 84 0
73 74 75 76 78 80 82 83 0
73 74 75 76 78 80 82 84 0
73 74 75 76 78 80 83 84 0
73 74 75 76 78 81 82 83 0
73 74 75 76 78 81 82 84 0
73 74 75 76 78 81 83 84 0
73 74 75 76 78 82 83 84 0
73 74 75 76 80 81 82 83 0
73 74 75 76 80 81 82 84 0
73 74 75 76 80 81 83 84 0
73 74 75 76 80 82 83 84 0
73 74 75 76 81 82 83 84 0
73 74 75 77 78 80 81 82 0
73 74 75 77 78 80 81 83 0
73 74 75 77 78 80 81 84 0
73 74 75 77 78 80 82 83 0
73 74 75 77 78 80 82 84 0
73 74 75 77 78 80 83 84 0
73 74 75 77 78 81 82 83 0
73 74 75 77 78 81 82 84 0
73 74 75 77 78 81 83 84 0
73 74 75 77 78 82 83 84 0
73 74 75 77 80 81 82 83 0
73 74 75 77 80 81 82 84 0
73 74 75 77 80 81 83 84 0
73 74 75 77 80 82 83 84 0
73 74 75 77 81 82 83 84 0
73 74 75 78 80 81 82 83 0
73 74 75 78 80 81 82 84 0
73 74 75 78 80 81 83 84 0
73 74 75 78 80 82 83 84 0
73 74 75 78 81 82 83 84 0
73 74 75 80 81 82 83 84 0
73 74 76 77 78 80 81 82 0
73 74 76 77 78 80 81 83 0
73 74 76 77 78 80 81 84 0
73 74 76 77 78 80 82 83 0
73 74 76 77 78 80 82 84 0
73 74 76 77 78 80 83 84 0
73 74 76 77 78 81 82 83 0
73 74 76 77 78 81 82 84 0
73 74 76 77 78 81 83 84 0
73 74 76 77 78 82 83 84 0
73 74 76 77 80 81 82 83 0
73 74 76 77 80 81 82 84 0
73 74 76 77 80 81 83 84 0
73 74 76 77 80 82 83 84 0
73 74 76 77 81 82 83 84 0
73 74 76 78 80 81 82 83 0
73 74 76 78 80 81 82 84 0
73 74 76 78 80 81 83 84 0
73 74 76 78 80 82 83 84 0
73 74 76 78 81 82 83 84 0
73 74 76 80 81 82 83 84 0
73 74 77 78 80 81 82 83 0
73 74 77 78 80 81 82 84 0
73 74 77 78 80 81 83 84 0
73 74 77 78 80 82 83 84 0
73 74 77 78 81 82 83 84 0
73 74 77 80 81 82 83 84 0
73 74 78 80 81 82 83 84 0
73 75 76 77 78 80 81 82 0
73 75 76 77 78 80 81 83 0
73 75 76 77 78 80 81 84 0
73 75 76 77 78 80 82 83 0
73 75 76 77 78 80 82 84 0
73 75 76 77 78 80 83 84 0
73 75 76 77 78 81 82 83 0
73 75 76 77 78 81 82 84 0
73 75 76 77 78 81 83 84 0
73 75 76 77 78 82 83 84 0
73 75 76 77 80 81 82 83 0
73 75 76 77 80 81 82 84 0
73 75 76 77 80 81 83 84 0
73 75 76 77 80 82 83 84 0
73 75 76 77 81 82 83 84 0
73 75 76 78 80 81 82 83 0
73 75 76 78 80 81 82 84 0
73 75 76 78 80 81 83 84 0
73 75 76 78 80 82 83 84 0
73 75 76 78 81 82 83 84 0
73 75 76 80 81 82 83 84 0
73 75 77 78 80 81 82 83 0
73 75 77 78 80 81 82 84 0
73 75 77 78 80 81 83 84 0
73 75 77 78 80 82 83 84 0
73 75 77 78 81 82 83 84 0
73 75 77 80 81 82 83 84 0
73 75 78 80 81 82 83 84 0
73 76 77 78 80 81 82 83 0
73 76 77 78 80 81 82 84 0
73 76 77 78 80 81 83 84 0
73 76 77 78 80 82 83 84 0
73 76 77 78 81 82 83 84 0
73 76 77 80 81 82 83 84 0
73 76 78 80 81 82 83 84 0
73 77 78 80 81 82 83 84 0
74 75 76 77 78 80 81 82 0
74 75 76 77 78 80 81 83 0
74 75 76 77 78 80 81 84 0
74 75 76 77 78 80 82 83 0
74 75 76 77 78 80 82 84 0
74 75 76 77 78 80 83 84 0
74 75 76 77 78 81 82 83 0
74 75 76 77 78 81 82 84 0
74 75 76 77 78 81 83 84 0
74 75 76 77 78 82 83 84 0
74 75 76 77 80 81 82 83 0
74 75 76 77 80 81 82 84 0
74 75 76 77 80 81 83 84 0
74 75 76 77 80 82 83 84 0
74 75 76 77 81 82 83 84 0
74 75 76 78 80 81 82 83 0
74 75 76 78 80 81 82 84 0
74 75 76 78 80 81 83 84 0
74 75 76 78 80 82 83 84 0
74 75 76 78 81 82 83 84 0
74 75 76 80 81 82 83 84 0
74 75 77 78 80 81 82 83 0
74 75 77 78 80 81 82 84 0
74 75 77 78 80 81 83 84 0
74 75 77 78 80 82 83 84 0
74 75 77 78 81 82 83 84 0
74 75 77 80 81 82 83 84 0
74 75 78 80 81 82 83 84 0
74 76 77 78 80 81 82 83 0
74 76 77 78 80 81 82 84 0
74 76 77 78 80 81 83 84 0
74 76 77 78 80 82 83 84 0
74 76 77 78 81 82 83 84 0
74 76 77 80 81 82 83 84 0
74 76 78 80 81 82 83 84 0
74 77 78 80 81 82 83 84 0
75 76 77 78 80 81 82 83 0
75 76 77 78 80 81 82 84 0
75 76 77 78 80 81 83 84 0
75 76 77 78 80 82 83 84 0
75 76 77 78 81 82 83 84 0
75 76 77 80 81 82 83 84 0
75 76 78 80 81 82 83 84 0
75 77 78 80 81 82 83 84 0
76 77 78 80 81 82 83 84 0
-73 -74 -75 -76 -77 0
-73 -74 -75 -76 -78 0
-73 -74 -75 -76 -80 0
-73 -74 -75 -76 -81 0
-73 -74 -75 -76 -82 0
-73 -74 -75 -76 -83 0
-73 -74 -75 -76 -84 0
-73 -74 -75 -77 -78 0
-73 -74 -75 -77 -80 0
-73 -74 -75 -77 -81 0
-73 -74 -75 -77 -82 0
-73 -74 -75 -77 -83 0
-73 -74 -75 -77 -84 0
-73 -74 -75 -78 -80 0
-73 -74 -75 -78 -81 0
-73 -74 -75 -78 -82 0
-73 -74 -75 -78 -83 0
-73 -74 -75 -78 -84 0
-73 -74 -75 -80 -81 0
-73 -74 -75 -80 -82 0
-73 -74 -75 -80 -83 0
-73 -74 -75 -80 -84 0
-73 -74 -75 -81 -82 0
-73 -74 -75 -81 -83 0
-73 -74 -75 -81 -84 0
-73 -74 -75 -82 -83 0
-73 -74 -75 -82 -84 0
-73 -74 -75 -83 -84 0
-73 -74 -76 -77 -78 0
-73 -74 -76 -77 -80 0
-73 -74 -76 -77 -81 0
-73 -74 -76 -77 -82 0
-73 -74 -76 -77 -83 0
-73 -74 -76 -77 -84 0
-73 -74 -76 -78 -80 0
-73 -74 -76 -78 -81 0
-73 -74 -76 -78 -82 0
-73 -74 -76 -78 -83 0
-73 -74 -76 -78 -84 0
-73 -74 -76 -80 -81 0
-73 -74 -76 -80 -82 0
-73 -74 -76 -80 -83 0
-73 -74 -76 -80 -84 0
-73 -74 -76 -81 -82 0
-73 -74 -76 -81 -83 0
-73 -74 -76 -81 -84 0
-73 -74 -76 -82 -83 0
-73 -74 -76 -82 -84 0
-73 -74 -76 -83 -84 0
-73 -74 -77 -78 -80 0
-73 -74 -77 -78 -81 0
-73 -74 -77 -78 -82 0
-73 -74 -77 -78 -83 0
-73 -74 -77 -78 -84 0
-73 -74 -77 -80 -81 0
-73 -74 -77 -80 -82 0
-73 -74 -77 -80 -83 0
-73 -74 -77 -80 -84 0
-73 -74 -77 -81 -82 0
-73 -74 -77 -81 -83 0
-73 -74 -77 -81 -84 0
-73 -74 -77 -82 -83 0
-73 -74 -77 -82 -84 0
-73 -74 -77 -83 -84 0
-73 -74 -78 -80 -81 0
-73 -74 -78 -80 -82 0
-73 -74 -78 -80 -83 0
-73 -74 -78 -80 -84 0
-73 -74 -78 -81 -82 0
-73 -74 -78 -81 -83 0
-73 -74 -78 -81 -84 0
-73 -74 -78 -82 -83 0
-73 -74 -78 -82 -84 0
-73 -74 -78 -83 -84 0
-73 -74 -80 -81 -82 0
-73 -74 -80 -81 -83 0
-73 -74 -80 -81 -84 0
-73 -74 -80 -82 -83 0
-73 -74 -80 -82 -84 0
-73 -74 -80 -83 -84 0
-73 -74 -81 -82 -83 0
-73 -74 -81 -82 -84 0
-73 -74 -81 -83 -84 0
-73 -74 -82 -83 -84 0
-73 -75 -76 -77 -78 0
-73 -75 -76 -77 -80 0
-73 -75 -76 -77 -81 0
-73 -75 -76 -77 -82 0
-73 -75 -76 -77 -83 0
-73 -75 -76 -77 -84 0
-73 -75 -76 -78 -80 0
-73 -75 -76 -78 -81 0
-73 -75 -76 -78 -82 0
-73 -75 -76 -78 -83 0
-73 -75 -76 -78 -84 0
-73 -75 -76 -80 -81 0
-73 -75 -76 -80 -82 0
-73 -75 -76 -80 -83 0
-73 -75 -76 -80 -84 0
-73 -75 -76 -81 -82 0
-73 -75 -76 -81 -83 0
-73 -75 -76 -81 -84 0
-73 -75 -76 -82 -83 0
-73 -75 -76 -82 -84 0
-73 -75 -76 -83 -84 0
-73 -75 -77 -78 -80 0
-73 -75 -77 -78 -81 0
-73 -75 -77 -78 -82 0
-73 -75 -77 -78 -83 0
-73 -75 -77 -78 -84 0
-73 -75 -77 -80 -81 0
-73 -75 -77 -80 -82 0
-73 -75 -77 -80 -83 0
-73 -75 -77 -80 -84 0
-73 -75 -77 -81 -82 0
-73 -75 -77 -81 -83 0
-73 -75 -77 -81 -84 0
-73 -75 -77 -82 -83 0
-73 -75 -77 -82 -84 0
-73 -75 -77 -83 -84 0
-73 -75 -78 -80 -81 0
-73 -75 -78 -80 -82 0
-73 -75 -78 -80 -83 0
-73 -75 -78 -80 -84 0
-73 -75 -78 -81 -82 0
-73 -75 -78 -81 -83 0
-73 -75 -78 -81 -84 0
-73 -75 -78 -82 -83 0
-73 -75 -78 -82 -84 0
-73 -75 -78 -83 -84 0
-73 -75 -80 -81 -82 0
-73 -75 -80 -81 -83 0
-73 -75 -80 -81 -84 0
-73 -75 -80 -82 -83 0
-73 -75 -80 -82 -84 0
-73 -75 -80 -83 -84 0
-73 -75 -81 -82 -83 0
-73 -75 -81 -82 -84 0
-73 -75 -81 -83 -84 0
-73 -75 -82 -83 -84 0
-73 -76 -77 -78 -80 0
-73 -76 -77 -78 -81 0
-73 -76 -77 -78 -82 0
-73 -76 -77 -78 -83 0
-73 -76 -77 -78 -84 0
-73 -76 -77 -80 -81 0
-73 -76 -77 -80 -82 0
-73 -76 -77 -80 -83 0
-73 -76 -77 -80 -84 0
-73 -76 -77 -81 -82 0
-73 -76 -77 -81 -83 0
-73 -76 -77 -81 -84 0
-73 -76 -77 -82 -83 0
-73 -76 -77 -82 -84 0
-73 -76 -77 -83 -84 0
-73 -76 -78 -80 -81 0
-73 -76 -78 -80 -82 0
-73 -76 -78 -80 -83 0
-73 -76 -78 -80 -84 0
-73 -76 -78 -81 -82 0
-73 -76 -78 -81 -83 0
-73 -76 -78 -81 -84 0
-73 -76 -78 -82 -83 0
-73 -76 -78 -82 -84 0
-73 -76 -78 -83 -84 0
-73 -76 -80 -81 -82 0
-73 -76 -80 -81 -83 0
-73 -76 -80 -81 -84 0
-73 -76 -80 -82 -83 0
-73 -76 -80 -82 -84 0
-73 -76 -80 -83 -84 0
-73 -76 -81 -82 -83 0
-73 -76 -81 -82 -84 0
-73 -76 -81 -83 -84 0
-73 -76 -82 -83 -84 0
-73 -77 -78 -80 -81 0
-73 -77 -78 -80 -82 0
-73 -77 -78 -80 -83 0
-73 -77 -78 -80 -84 0
-73 -77 -78 -81 -82 0
-73 -77 -78 -81 -83 0
-73 -77 -78 -81 -84 0
-73 -77 -78 -82 -83 0
-73 -77 -78 -82 -84 0
-73 -77 -78 -83 -84 0
-73 -77 -80 -81 -82 0
-73 -77 -80 -81 -83 0
-73 -77 -80 -81 -84 0
-73 -77 -80 -82 -83 0
-73 -77 -80 -82 -84 0
-73 -77 -80 -83 -84 0
-73 -77 -81 -82 -83 0
-73 -77 -81 -82 -84 0
-73 -77 -81 -83 -84 0
-73 -77 -82 -83 -84 0
-73 -78 -80 -81 -82 0
-73 -78 -80 -81 -83 0
-73 -78 -80 -81 -84 0
-73 -78 -80 -82 -83 0
-73 -78 -80 -82 -84 0
-73 -78 -80 -83 -84 0
-73 -78 -81 -82 -83 0
-73 -78 -81 -82 -84 0
-73 -78 -81 -83 -84 0
-73 -78 -82 -83 -84 0
-73 -80 -81 -82 -83 0
-73 -80 -81 -82 -84 0
-73 -80 -81 -83 -84 0
-73 -80 -82 -83 -84 0
-73 -81 -82 -83 -84 0
-74 -75 -76 -77 -78 0
-74 -75 -76 -77 -80 0
-74 -75 -76 -77 -81 0
-74 -75 -76 -77 -82 0
-74 -75 -76 -77 -83 0
-74 -75 -76 -77 -84 0
-74 -75 -76 -78 -80 0
-74 -75 -76 -78 -81 0
-74 -75 -76 -78 -82 0
-74 -75 -76 -78 -83 0
-74 -75 -76 -78 -84 0
-74 -75 -76 -80 -81 0
-74 -75 -76 -80 -82 0
-74 -75 -76 -80 -83 0
-74 -75 -76 -80 -84 0
-74 -75 -76 -81 -82 0
-74 -75 -76 -81 -83 0
-74 -75 -76 -81 -84 0
-74 -75 -76 -82 -83 0
-74 -75 -76 -82 -84 0
-74 -75 -76 -83 -84 0
-74 -75 -77 -78 -80 0
-74 -75 -77 -78 -81 0
-74 -75 -77 -78 -82 0
-74 -75 -77 -78 -83 0
-74 -75 -77 -78 -84 0
-74 -75 -77 -80 -81 0
-74 -75 -77 -80 -82 0
-74 -75 -77 -80 -83 0
-74 -75 -77 -80 -84 0
-74 -75 -77 -81 -82 0
-74 -75 -77 -81 -83 0
-74 -75 -77 -81 -84 0
-74 -75 -77 -82 -83 0
-74 -75 -77 -82 -84 0
-74 -75 -77 -83 -84 0
-74 -75 -78 -80 -81 0
-74 -75 -78 -80 -82 0
-74 -75 -78 -80 -83 0
-74 -75 -78 -80 -84 0
-74 -75 -78 -81 -82 0
-74 -75 -78 -81 -83 0
-74 -75 -78 -81 -84 0
-74 -75 -78 -82 -83 0
-74 -75 -78 -82 -84 0
-74 -75 -78 -83 -84 0
-74 -75 -80 -81 -82 0
-74 -75 -80 -81 -83 0
-74 -75 -80 -81 -84 0
-74 -75 -80 -82 -83 0
-74 -75 -80 -82 -84 0
-74 -75 -80 -83 -84 0
-74 -75 -81 -82 -83 0
-74 -75 -81 -82 -84 0
-74 -75 -81 -83 -84 0
-74 -75 -82 -83 -84 0
-74 -76 -77 -78 -80 0
-74 -76 -77 -78 -81 0
-74 -76 -77 -78 -82 0
-74 -76 -77 -78 -83 0
-74 -76 -77 -78 -84 0
-74 -76 -77 -80 -81 0
-74 -76 -77 -80 -82 0
-74 -76 -77 -80 -83 0
-74 -76 -77 -80 -84 0
-74 -76 -77 -81 -82 0
-74 -76 -77 -81 -83 0
-74 -76 -77 -81 -84 0
-74 -76 -77 -82 -83 0
-74 -76 -77 -82 -84 0
-74 -76 -77 -83 -84 0
-74 -76 -78 -80 -81 0
-74 -76 -78 -80 -82 0
-74 -76 -78 -80 -83 0
-74 -76 -78 -80 -84 0
-74 -76 -78 -81 -82 0
-74 -76 -78 -81 -83 0
-74 -76 -78 -81 -84 0
-74 -76 -78 -82 -83 0
-74 -76 -78 -82 -84 0
-74 -76 -78 -83 -84 0
-74 -76 -80 -81 -82 0
-74 -76 -80 -81 -83 0
-74 -76 -80 -81 -84 0
-74 -76 -80 -82 -83 0
-74 -76 -80 -82 -84 0
-74 -76 -80 -83 -84 0
-74 -76 -81 -82 -83 0
-74 -76 -81 -82 -84 0
-74 -76 -81 -83 -84 0
-74 -76 -82 -83 -84 0
-74 -77 -78 -80 -81 0
-74 -77 -78 -80 -82 0
-74 -77 -78 -80 -83 0
-74 -77 -78 -80 -84 0
-74 -77 -78 -81 -82 0
-74 -77 -78 -81 -83 0
-74 -77 -78 -81 -84 0
-74 -77 -78 -82 -83 0
-74 -77 -78 -82 -84 0
-74 -77 -78 -83 -84 0
-74 -77 -80 -81 -82 0
-74 -77 -80 -81 -83 0
-74 -77 -80 -81 -84 0
-74 -77 -80 -82 -83 0
-74 -77 -80 -82 -84 0
-74 -77 -80 -83 -84 0
-74 -77 -81 -82 -83 0
-74 -77 -81 -82 -84 0
-74 -77 -81 -83 -84 0
-74 -77 -82 -83 -84 0
-74 -78 -80 -81 -82 0
-74 -78 -80 -81 -83 0
-74 -78 -80 -81 -84 0
-74 -78 -80 -82 -83 0
-74 -78 -80 -82 -84 0
-74 -78 -80 -83 -84 0
-74 -78 -81 -82 -83 0
-74 -78 -81 -82 -84 0
-74 -78 -81 -83 -84 0
-74 -78 -82 -83 -84 0
-74 -80 -81 -82 -83 0
-74 -80 -81 -82 -84 0
-74 -80 -81 -83 -84 0
-74 -80 -82 -83 -84 0
-74 -81 -82 -83 -84 0
-75 -76 -77 -78 -80 0
-75 -76 -77 -78 -81 0
-75 -76 -77 -78 -82 0
-75 -76 -77 -78 -83 0
-75 -76 -77 -78 -84 0
-75 -76 -77 -80 -81 0
-75 -76 -77 -80 -82 0
-75 -76 -77 -80 -83 0
-75 -76 -77 -80 -84 0
-75 -76 -77 -81 -82 0
-75 -76 -77 -81 -83 0
-75 -76 -77 -81 -84 0
-75 -76 -77 -82 -83 0
-75 -76 -77 -82 -84 0
-75 -76 -77 -83 -84 0
-75 -76 -78 -80 -81 0
-75 -76 -78 -80 -82 0
-75 -76 -78 -80 -83 0
-75 -76 -78 -80 -84 0
-75 -76 -78 -81 -82 0
-75 -76 -78 -81 -83 0
-75 -76 -78 -81 -84 0
-75 -76 -78 -82 -83 0
-75 -76 -78 -82 -84 0
-75 -76 -78 -83 -84 0
-75 -76 -80 -81 -82 0
-75 -76 -80 -81 -83 0
-75 -76 -80 -81 -84 0
-75 -76 -80 -82 -83 0
-75 -76 -80 -82 -84 0
-75 -76 -80 -83 -84 0
-75 -76 -81 -82 -83 0
-75 -76 -81 -82 -84 0
-75 -76 -81 -83 -84 0
-75 -76 -82 -83 -84 0
-75 -77 -78 -80 -81 0
-75 -77 -78 -80 -82 0
-75 -77 -78 -80 -83 0
-75 -77 -78 -80 -84 0
-75 -77 -78 -81 -82 0
-75 -77 -78 -81 -83 0
-75 -77 -78 -81 -84 0
-75 -77 -78 -82 -83 0
-75 -77 -78 -82 -84 0
-75 -77 -78 -83 -84 0
-75 -77 -80 -81 -82 0
-75 -77 -80 -81 -83 0
-75 -77 -80 -81 -84 0
-75 -77 -80 -82 -83 0
-75 -77 -80 -82 -84 0
-75 -77 -80 -83 -84 0
-75 -77 -81 -82 -83 0
-75 -77 -81 -82 -84 0
-75 -77 -81 -83 -84 0
-75 -77 -82 -83 -84 0
-75 -78 -80 -81 -82 0
-75 -78 -80 -81 -83 0
-75 -78 -80 -81 -84 0
-75 -78 -80 -82 -83 0
-75 -78 -80 -82 -84 0
-75 -78 -80 -83 -84 0
-75 -78 -81 -82 -83 0
-75 -78 -81 -82 -84 0
-75 -78 -81 -83 -84 0
-75 -78 -82 -83 -84 0
-75 -80 -81 -82 -83 0
-75 -80 -81 -82 -84 0
-75 -80 -81 -83 -84 0
-75 -80 -82 -83 -84 0
-75 -81 -82 -83 -84 0
-76 -77 -78 -80 -81 0
-76 -77 -78 -80 -82 0
-76 -77 -78 -80 -83 0
-76 -77 -78 -80 -84 0
-76 -77 -78 -81 -82 0
-76 -77 -78 -81 -83 0
-76 -77 -78 -81 -84 0
-76 -77 -78 -82 -83 0
-76 -77 -78 -82 -84 0
-76 -77 -78 -83 -84 0
-76 -77 -80 -81 -82 0
-76 -77 -80 -81 -83 0
-76 -77 -80 -81 -84 0
-76 -77 -80 -82 -83 0
-76 -77 -80 -82 -84 0
-76 -77 -80 -83 -84 0
-76 -77 -81 -82 -83 0
-76 -77 -81 -82 -84 0
-76 -77 -81 -83 -84 0
-76 -77 -82 -83 -84 0
-76 -78 -80 -81 -82 0
-76 -78 -80 -81 -83 0
-76 -78 -80 -81 -84 0
-76 -78 -80 -82 -83 0
-76 -78 -80 -82 -84 0
-76 -78 -80 -83 -84 0
-76 -78 -81 -82 -83 0
-76 -78 -81 -82 -84 0
-76 -78 -81 -83 -84 0
-76 -78 -82 -83 -84 0
-76 -80 -81 -82 -83 0
-76 -80 -81 -82 -84 0
-76 -80 -81 -83 -84 0
-76 -80 -82 -83 -84 0
-76 -81 -82 -83 -84 0
-77 -78 -80 -81 -82 0
-77 -78 -80 -81 -83 0
-77 -78 -80 -81 -84 0
-77 -78 -80 -82 -83 0
-77 -78 -80 -82 -84 0
-77 -78 -80 -83 -84 0
-77 -78 -81 -82 -83 0
-77 -78 -81 -82 -84 0
-77 -78 -81 -83 -84 0
-77 -78 -82 -83 -84 0
-77 -80 -81 -82 -83 0
-77 -80 -81 -82 -84 0
-77 -80 -81 -83 -84 0
-77 -80 -82 -83 -84 0
-77 -81 -82 -83 -84 0
-78 -80 -81 -82 -83 0
-78 -80 -81 -82 -84 0
-78 -80 -81 -83 -84 0
-78 -80 -82 -83 -84 0
-78 -81 -82 -83 -84 0
-80 -81 -82 -83 -84 0
85 86 87 88 89 90 91 93 0
85 86 87 88 89 90 91 94 0
85 86 87 88 89 90 91 95 0
85 86 87 88 89 90 91 96 0
85 86 87 88 89 90 93 94 0
85 86 87 88 89 90 93 95 0
85 86 87 88 89 90 93 96 0
85 86 87 88 89 90 94 95 0
85 86 87 88 89 90 94 96 0
85 86 87 88 89 90 95 96 0
85 86 87 88 89 91 93 94 0
85 86 87 88 89 91 93 95 0
85 86 87 88 89 91 93 96 0
85 86 87 88 89 91 94 95 0
85 86 87 88 89 91 94 96 0
85 86 87 88 89 91 95 96 0
85 86 87 88 89 93 94 95 0
85 86 87 88 89 93 94 96 0
85 86 87 88 89 93 95 96 0
85 86 87 88 89 94 95 96 0
85 86 87 88 90 91 93 94 0
85 86 87 88 90 91 93 95 0
85 86 87 88 90 91 93 96 0
85 86 87 88 90 91 94 95 0
85 86 87 88 90 91 94 96 0
85 86 87 88 90 91 95 96 0
85 86 87 88 90 93 94 95 0
85 86 87 88 90 93 94 96 0
85 86 87 88 90 93 95 96 0
85 86 87 88 90 94 95 96 0
85 86 87 88 91 93 94 95 0
85 86 87 88 91 93 94 96 0
85 86 87 88 91 93 95 96 0
85 86 87 88 91 94 95 96 0
85 86 87 88 93 94 95 96 0
85 86 87 89 90 91 93 94 0
85 86 87 89 90 91 93 95 0
85 86 87 89 90 91 93 96 0
85 86 87 89 90 91 94 95 0
85 86 87 89 90 91 94 96 0
85 86 87 89 90 91 95 96 0
85 86 87 89 90 93 94 95 0
85 86 87 89 90 93 94 96 0
85 86 87 89 90 93 95 96 0
85 86 87 89 90 94 95 96 0
85 86 87 89 91 93 94 95 0
85 86 87 89 91 93 94 96 0
85 86 87 89 91 93 95 96 0
85 86 87 89 91 94 95 96 0
85 86 87 89 93 94 95 96 0
85 86 87 90 91 93 94 95 0
85 86 87 90 91 93 94 96 0
85 86 87 90 91 93 95 96 0
85 86 87 90 91 94 95 96 0
85 86 87 90 93 94 95 96 0
85 86 87 91 93 94 95 96 0
85 86 88 89 90 91 93 94 0
85 86 88 89 90 91 93 95 0
85 86 88 89 90 91 93 96 0
85 86 88 89 90 91 94 95 0
85 86 88 89 90 91 94 96 0
85 86 88 89 90 91 95 96 0
85 86 88 89 90 93 94 95 0
85 86 88 89 90 93 94 96 0
85 86 88 89 90 93 95 96 0
85 86 88 89 90 94 95 96 0
85 86 88 89 91 93 94 95 0
85 86 88 89 91 93 94 96 0
85 86 88 89 91 93 95 96 0
85 86 88 89 91 94 95 96 0
85 86 88 89 93 94 95 96 0
85 86 88 90 91 93 94 95 0
85 86 88 90 91 93 94 96 0
85 86 88 90 91 93 95 96 0
85 86 88 90 91 94 95 96 0
85 86 88 90 93 94 95 96 0
85 86 88 91 93 94 95 96 0
85 86 89 90 91 93 94 95 0
85 86 89 90 91 93 94 96 0
85 86 89 90 91 93 95 96 0
85 86 89 90 91 94 95 96 0
85 86 89 90 93 94 95 96 0
85 86 89 91 93 94 95 96 0
85 86 90 91 93 94 95 96 0
85 87 88 89 90 91 93 94 0
85 87 88 89 90 91 93 95 0
85 87 88 89 90 91 93 96 0
85 87 88 89 90 91 94 95 0
85 87 88 89 90 91 94 96 0
85 87 88 89 90 91 95 96 0
85 87 88 89 90 93 94 95 0
85 87 88 89 90 93 94 96 0
85 87 88 89 90 93 95 96 0
85 87 88 89 90 94 95 96 0
85 87 88 89 91 93 94 95 0
85 87 88 89 91 93 94 96 0
85 87 88 89 91 93 95 96 0
85 87 88 89 91 94 95 96 0
85 87 88 89 93 94 95 96 0
85 87 88 90 91 93 94 95 0
85 87 88 90 91 93 94 96 0
85 87 88 90 91 93 95 96 0
85 87 88 90 91 94 95 96 0
85 87 88 90 93 94 95 96 0
85 87 88 91 93 94 95 96 0
85 87 89 90 91 93 94 95 0
85 87 89 90 91 93 94 96 0
85 87 89 90 91 93 95 96 0
85 87 89 90 91 94 95 96 0
85 87 89 90 93 94 95 96 0
85 87 89 91 93 94 95 96 0
85 87 90 91 93 94 95 96 0
85 88 89 90 91 93 94 95 0
85 88 89 90 91 93 94 96 0
85 88 89 90 91 93 95 96 0
85 88 89 90 91 94 95 96 0
85 88 89 90 93 94 95 96 0
85 88 89 91 93 94 95 96 0
85 88 90 91 93 94 95 96 0
85 89 90 91 93 94 95 96 0
86 87 88 89 90 91 93 94 0
86 87 88 89 90 91 93 95 0
86 87 88 89 90 91 93 96 0
86 87 88 89 90 91 94 95 0
86 87 88 89 90 91 94 96 0
86 87 88 89 90 91 95 96 0
86 87 88 89 90 93 94 95 0
86 87 88 89 90 93 94 96 0
86 87 88 89 90 93 95 96 0
86 87 88 89 90 94 95 96 0
86 87 88 89 91 93 94 95 0
86 87 88 89 91 93 94 96 0
86 87 88 89 91 93 95 96 0
86 87 88 89 91 94 95 96 0
86 87 88 89 93 94 95 96 0
86 87 88 90 91 93 94 95 0
86 87 88 90 91 93 94 96 0
86 87 88 90 91 93 95 96 0
86 87 88 90 91 94 95 96 0
86 87 88 90 93 94 95 96 0
86 87 88 91 93 94 95 96 0
86 87 89 90 91 93 94 95 0
86 87 89 90 91 93 94 96 0
86 87 89 90 91 93 95 96 0
86 87 89 90 91 94 95 96 0
86 87 89 90 93 94 95 96 0
86 87 89 91 93 94 95 96 0
86 87 90 91 93 94 95 96 0
86 88 89 90 91 93 94 95 0
86 88 89 90 91 93 94 96 0
86 88 89 90 91 93 95 96 0
86 88 89 90 91 94 95 96 0
86 88 89 90 93 94 95 96 0
86 88 89 91 93 94 95 96 0
86 88 90 91 93 94 95 96 0
86 89 90 91 93 94 95 96 0
87 88 89 90 91 93 94 95 0
87 88 89 90 91 93 94 96 0
87 88 89 90 91 93 95 96 0
87 88 89 90 91 94 95 96 0
87 88 89 90 93 94 95 96 0
87 88 89 91 93 94 95 96 0
87 88 90 91 93 94 95 96 0
87 89 90 91 93 94 95 96 0
88 89 90 91 93 94 95 96 0
-85 -86 -87 -88 -89 0
-85 -86 -87 -88 -90 0
-85 -86 -87 -88 -91 0
-85 -86 -87 -88 -93 0
-85 -86 -87 -88 -94 0
-85 -86 -87 -88 -95 0
-85 -86 -87 -88 -96 0
-85 -86 -87 -89 -90 0
-85 -86 -87 -89 -91 0
-85 -86 -87 -89 -93 0
-85 -86 -87 -89 -94 0
-85 -86 -87 -89 -95 0
-85 -86 -87 -89 -96 0
-85 -86 -87 -90 -91 0
-85 -86 -87 -90 -93 0
-85 -86 -87 -90 -94 0
-85 -86 -87 -90 -95 0
-85 -86 -87 -90 -96 0
-85 -86 -87 -91 -93 0
-85 -86 -87 -91 -94 0
-85 -86 -87 -91 -95 0
-85 -86 -87 -91 -96 0
-85 -86 -87 -93 -94 0
-85 -86 -87 -93 -95 0
-85 -86 -87 -93 -96 0
-85 -86 -87 -94 -95 0
-85 -86 -87 -94 -96 0
-85 -86 -87 -95 -96 0
-85 -86 -88 -89 -90 0
-85 -86 -88 -89 -91 0
-85 -86 -88 -89 -93 0
-85 -86 -88 -89 -94 0
-85 -86 -88 -89 -95 0
-85 -86 -88 -89 -96 0
-85 -86 -88 -90 -91 0
-85 -86 -88 -90 -93 0
-85 -86 -88 -90 -94 0
-85 -86 -88 -90 -95 0
-85 -86 -88 -90 -96 0
-85 -86 -88 -91 -93 0
-85 -86 -88 -91 -94 0
-85 -86 -88 -91 -95 0
-85 -86 -88 -91 -96 0
-85 -86 -88 -93 -94 0
-85 -86 -88 -93 -95 0
-85 -86 -88 -93 -96 0
-85 -86 -88 -94 -95 0
-85 -86 -88 -94 -96 0
-85 -86 -88 -95 -96 0
-85 -86 -89 -90 -91 0
-85 -86 -89 -90 -93 0
-85 -86 -89 -90 -94 0
-85 -86 -89 -90 -95 0
-85 -86 -89 -90 -96 0
-85 -86 -89 -91 -93 0
-85 -86 -89 -91 -94 0
-85 -86 -89 -91 -95 0
-85 -86 -89 -91 -96 0
-85 -86 -89 -93 -94 0
-85 -86 -89 -93 -95 0
-85 -86 -89 -93 -96 0
-85 -86 -89 -94 -95 0
-85 -86 -89 -94 -96 0
-85 -86 -89 -95 -96 0
-85 -86 -90 -91 -93 0
-85 -86 -90 -91 -94 0
-85 -86 -90 -91 -95 0
-85 -86 -90 -91 -96 0
-85 -86 -90 -93 -94 0
-85 -86 -90 -93 -95 0
-85 -86 -90 -93 -96 0
-85 -86 -90 -94 -95 0
-85 -86 -90 -94 -96 0
-85 -86 -90 -95 -96 0
-85 -86 -91 -93 -94 0
-85 -86 -91 -93 -95 0
-85 -86 -91 -93 -96 0
-85 -86 -91 -94 -95 0
-85 -86 -91 -94 -96 0
-85 -86 -91 -95 -96 0
-85 -86 -93 -94 -95 0
-85 -86 -93 -94 -96 0
-85 -86 -93 -95 -96 0
-85 -86 -94 -95 -96 0
-85 -87 -88 -89 -90 0
-85 -87 -88 -89 -91 0
-85 -87 -88 -89 -93 0
-85 -87 -88 -89 -94 0
-85 -87 -88 -89 -95 0
-85 -87 -88 -89 -96 0
-85 -87 -88 -90 -91 0
-85 -87 -88 -90 -93 0
-85 -87 -88 -90 -94 0
-85 -87 -88 -90 -95 0
-85 -87 -88 -90 -96 0
-85 -87 -88 -91 -93 0
-85 -87 -88 -91 -94 0
-85 -87 -88 -91 -95 0
-85 -87 -88 -91 -96 0
-85 -87 -88 -93 -94 0
-85 -87 -88 -93 -95 0
-85 -87 -88 -93 -96 0
-85 -87 -88 -94 -95 0
-85 -87 -88 -94 -96 0
-85 -87 -88 -95 -96 0
-85 -87 -89 -90 -91 0
-85 -87 -89 -90 -93 0
-85 -87 -89 -90 -94 0
-85 -87 -89 -90 -95 0
-85 -87 -89 -90 -96 0
-85 -87 -89 -91 -93 0
-85 -87 -89 -91 -94 0
-85 -87 -89 -91 -95 0
-85 -87 -89 -91 -96 0
-85 -87 -89 -93 -94 0
-85 -87 -89 -93 -95 0
-85 -87 -89 -93 -96 0
-85 -87 -89 -94 -95 0
-85 -87 -89 -94 -96 0
-85 -87 -89 -95 -96 0
-85 -87 -90 -91 -93 0
-85 -87 -90 -91 -94 0
-85 -87 -90 -91 -95 0
-85 -87 -90 -91 -96 0
-85 -87 -90 -93 -94 0
-85 -87 -90 -93 -95 0
-85 -87 -90 -93 -96 0
-85 -87 -90 -94 -95 0
-85 -87 -90 -94 -96 0
-85 -87 -90 -95 -96 0
-85 -87 -91 -93 -94 0
-85 -87 -91 -93 -95 0
-85 -87 -91 -93 -96 0
-85 -87 -91 -94 -95 0
-85 -87 -91 -94 -96 0
-85 -87 -91 -95 -96 0
-85 -87 -93 -94 -95 0
-85 -87 -93 -94 -96 0
-85 -87 -93 -95 -96 0
-85 -87 -94 -95 -96 0
-85 -88 -89 -90 -91 0
-85 -88 -89 -90 -93 0
-85 -88 -89 -90 -94 0
-85 -88 -89 -90 -95 0
-85 -88 -89 -90 -96 0
-85 -88 -89 -91 -93 0
-85 -88 -89 -91 -94 0
-85 -88 -89 -91 -95 0
-85 -88 -89 -91 -96 0
-85 -88 -89 -93 -94 0
-85 -88 -89 -93 -95 0
-85 -88 -89 -93 -96 0
-85 -88 -89 -94 -95 0
-85 -88 -89 -94 -96 0
-85 -88 -89 -95 -96 0
-85 -88 -90 -91 -93 0
-85 -88 -90 -91 -94 0
-85 -88 -90 -91 -95 0
-85 -88 -90 -91 -96 0
-85 -88 -90 -93 -94 0
-85 -88 -90 -93 -95 0
-85 -88 -90 -93 -96 0
-85 -88 -90 -94 -95 0
-85 -88 -90 -94 -96 0
-85 -88 -90 -95 -96 0
-85 -88 -91 -93 -94 0
-85 -88 -91 -93 -95 0
-85 -88 -91 -93 -96 0
-85 -88 -91 -94 -95 0
-85 -88 -91 -94 -96 0
-85 -88 -91 -95 -96 0
-85 -88 -93 -94 -95 0
-85 -88 -93 -94 -96 0
-85 -88 -93 -95 -96 0
-85 -88 -94 -95 -96 0
-85 -89 -90 -91 -93 0
-85 -89 -90 -91 -94 0
-85 -89 -90 -91 -95 0
-85 -89 -90 -91 -96 0
-85 -89 -90 -93 -94 0
-85 -89 -90 -93 -95 0
-85 -89 -90 -93 -96 0
-85 -89 -90 -94 -95 0
-85 -89 -90 -94 -96 0
-85 -89 -90 -95 -96 0
-85 -89 -91 -93 -94 0
-85 -89 -91 -93 -95 0
-85 -89 -91 -93 -96 0
-85 -89 -91 -94 -95 0
-85 -89 -91 -94 -96 0
-85 -89 -91 -95 -96 0
-85 -89 -93 -94 -95 0
-85 -89 -93 -94 -96 0
-85 -89 -93 -95 -96 0
-85 -89 -94 -95 -96 0
-85 -90 -91 -93 -94 0
-85 -90 -91 -93 -95 0
-85 -90 -91 -93 -96 0
-85 -90 -91 -94 -95 0
-85 -90 -91 -94 -96 0
-85 -90 -91 -95 -96 0
-85 -90 -93 -94 -95 0
-85 -90 -93 -94 -96 0
-85 -90 -93 -95 -96 0
-85 -90 -94 -95 -96 0
-85 -91 -93 -94 -95 0
-85 -91 -93 -94 -96 0
-85 -91 -93 -95 -96 0
-85 -91 -94 -95 -96 0
-85 -93 -94 -95 -96 0
-86 -87 -88 -89 -90 0
-86 -87 -88 -89 -91 0
-86 -87 -88 -89 -93 0
-86 -87 -88 -89 -94 0
-86 -87 -88 -89 -95 0
-86 -87 -88 -89 -96 0
-86 -87 -88 -90 -91 0
-86 -87 -88 -90 -93 0
-86 -87 -88 -90 -94 0
-86 -87 -88 -90 -95 0
-86 -87 -88 -90 -96 0
-86 -87 -88 -91 -93 0
-86 -87 -88 -91 -94 0
-86 -87 -88 -91 -95 0
-86 -87 -88 -91 -96 0
-86 -87 -88 -93 -94 0
-86 -87 -88 -93 -95 0
-86 -87 -88 -93 -96 0
-86 -87 -88 -94 -95 0
-86 -87 -88 -94 -96 0
-86 -87 -88 -95 -96 0
-86 -87 -89 -90 -91 0
-86 -87 -89 -90 -93 0
-86 -87 -89 -90 -94 0
-86 -87 -89 -90 -95 0
-86 -87 -89 -90 -96 0
-86 -87 -89 -91 -93 0
-86 -87 -89 -91 -94 0
-86 -87 -89 -91 -95 0
-86 -87 -89 -91 -96 0
-86 -87 -89 -93 -94 0
-86 -87 -89 -93 -95 0
-86 -87 -89 -93 -96 0
-86 -87 -89 -94 -95 0
-86 -87 -89 -94 -96 0
-86 -87 -89 -95 -96 0
-86 -87 -90 -91 -93 0
-86 -87 -90 -91 -94 0
-86 -87 -90 -91 -95 0
-86 -87 -90 -91 -96 0
-86 -87 -90 -93 -94 0
-86 -87 -90 -93 -95 0
-86 -87 -90 -93 -96 0
-86 -87 -90 -94 -95 0
-86 -87 -90 -94 -96 0
-86 -87 -90 -95 -96 0
-86 -87 -91 -93 -94 0
-86 -87 -91 -93 -95 0
-86 -87 -91 -93 -96 0
-86 -87 -91 -94 -95 0
-86 -87 -91 -94 -96 0
-86 -87 -91 -95 -96 0
-86 -87 -93 -94 -95 0
-86 -87 -93 -94 -96 0
-86 -87 -93 -95 -96 0
-86 -87 -94 -95 -96 0
-86 -88 -89 -90 -91 0
-86 -88 -89 -90 -93 0
-86 -88 -89 -90 -94 0
-86 -88 -89 -90 -95 0
-86 -88 -89 -90 -96 0
-86 -88 -89 -91 -93 0
-86 -88 -89 -91 -94 0
-86 -88 -89 -91 -95 0
-86 -88 -89 -91 -96 0
-86 -88 -89 -93 -94 0
-86 -88 -89 -93 -95 0
-86 -88 -89 -93 -96 0
-86 -88 -89 -94 -95 0
-86 -88 -89 -94 -96 0
-86 -88 -89 -95 -96 0
-86 -88 -90 -91 -93 0
-86 -88 -90 -91 -94 0
-86 -88 -90 -91 -95 0
-86 -88 -90 -91 -96 0
-86 -88 -90 -93 -94 0
-86 -88 -90 -93 -95 0
-86 -88 -90 -93 -96 0
-86 -88 -90 -94 -95 0
-86 -88 -90 -94 -96 0
-86 -88 -90 -95 -96 0
-86 -88 -91 -93 -94 0
-86 -88 -91 -93 -95 0
-86 -88 -91 -93 -96 0
-86 -88 -91 -94 -95 0
-86 -88 -91 -94 -96 0
-86 -88 -91 -95 -96 0
-86 -88 -93 -94 -95 0
-86 -88 -93 -94 -96 0
-86 -88 -93 -95 -96 0
-86 -88 -94 -95 -96 0
-86 -89 -90 -91 -93 0
-86 -89 -90 -91 -94 0
-86 -89 -90 -91 -95 0
-86 -89 -90 -91 -96 0
-86 -89 -90 -93 -94 0
-86 -89 -90 -93 -95 0
-86 -89 -90 -93 -96 0
-86 -89 -90 -94 -95 0
-86 -89 -90 -94 -96 0
-86 -89 -90 -95 -96 0
-86 -89 -91 -93 -94 0
-86 -89 -91 -93 -95 0
-86 -89 -91 -93 -96 0
-86 -89 -91 -94 -95 0
-86 -89 -91 -94 -96 0
-86 -89 -91 -95 -96 0
-86 -89 -93 -94 -95 0
-86 -89 -93 -94 -96 0
-86 -89 -93 -95 -96 0
-86 -89 -94 -95 -96 0
-86 -90 -91 -93 -94 0
-86 -90 -91 -93 -95 0
-86 -90 -91 -93 -96 0
-86 -90 -91 -94 -95 0
-86 -90 -91 -94 -96 0
-86 -90 -91 -95 -96 0
-86 -90 -93 -94 -95 0
-86 -90 -93 -94 -96 0
-86 -90 -93 -95 -96 0
-86 -90 -94 -95 -96 0
-86 -91 -93 -94 -95 0
-86 -91 -93 -94 -96 0
-86 -91 -93 -95 -96 0
-86 -91 -94 -95 -96 0
-86 -93 -94 -95 -96 0
-87 -88 -89 -90 -91 0
-87 -88 -89 -90 -93 0
-87 -88 -89 -90 -94 0
-87 -88 -89 -90 -95 0
-87 -88 -89 -90 -96 0
-87 -88 -89 -91 -93 0
-87 -88 -89 -91 -94 0
-87 -88 -89 -91 -95 0
-87 -88 -89 -91 -96 0
-87 -88 -89 -93 -94 0
-87 -88 -89 -93 -95 0
-87 -88 -89 -93 -96 0
-87 -88 -89 -94 -95 0
-87 -88 -89 -94 -96 0
-87 -88 -89 -95 -96 0
-87 -88 -90 -91 -93 0
-87 -88 -90 -91 -94 0
-87 -88 -90 -91 -95 0
-87 -88 -90 -91 -96 0
-87 -88 -90 -93 -94 0
-87 -88 -90 -93 -95 0
-87 -88 -90 -93 -96 0
-87 -88 -90 -94 -95 0
-87 -88 -90 -94 -96 0
-87 -88 -90 -95 -96 0
-87 -88 -91 -93 -94 0
-87 -88 -91 -93 -95 0
-87 -88 -91 -93 -96 0
-87 -88 -91 -94 -95 0
-87 -88 -91 -94 -96 0
-87 -88 -91 -95 -96 0
-87 -88 -93 -94 -95 0
-87 -88 -93 -94 -96 0
-87 -88 -93 -95 -96 0
-87 -88 -94 -95 -96 0
-87 -89 -90 -91 -93 0
-87 -89 -90 -91 -94 0
-87 -89 -90 -91 -95 0
-87 -89 -90 -91 -96 0
-87 -89 -90 -93 -94 0
-87 -89 -90 -93 -95 0
-87 -89 -90 -93 -96 0
-87 -89 -90 -94 -95 0
-87 -89 -90 -94 -96 0
-87 -89 -90 -95 -96 0
-87 -89 -91 -93 -94 0
-87 -89 -91 -93 -95 0
-87 -89 -91 -93 -96 0
-87 -89 -91 -94 -95 0
-87 -89 -91 -94 -96 0
-87 -89 -91 -95 -96 0
-87 -89 -93 -94 -95 0
-87 -89 -93 -94 -96 0
-87 -89 -93 -95 -96 0
-87 -89 -94 -95 -96 0
-87 -90 -91 -93 -94 0
-87 -90 -91 -93 -95 0
-87 -90 -91 -93 -96 0
-87 -90 -91 -94 -95 0
-87 -90 -91 -94 -96 0
-87 -90 -91 -95 -96 0
-87 -90 -93 -94 -95 0
-87 -90 -93 -94 -96 0
-87 -90 -93 -95 -96 0
-87 -90 -94 -95 -96 0
-87 -91 -93 -94 -95 0
-87 -91 -93 -94 -96 0
-87 -91 -93 -95 -96 0
-87 -91 -94 -95 -96 0
-87 -93 -94 -95 -96 0
-88 -89 -90 -91 -93 0
-88 -89 -90 -91 -94 0
-88 -89 -90 -91 -95 0
-88 -89 -90 -91 -96 0
-88 -89 -90 -93 -94 0
-88 -89 -90 -93 -95 0
-88 -89 -90 -93 -96 0
-88 -89 -90 -94 -95 0
-88 -89 -90 -94 -96 0
-88 -89 -90 -95 -96 0
-88 -89 -91 -93 -94 0
-88 -89 -91 -93 -95 0
-88 -89 -91 -93 -96 0
-88 -89 -91 -94 -95 0
-88 -89 -91 -94 -96 0
-88 -89 -91 -95 -96 0
-88 -89 -93 -94 -95 0
-88 -89 -93 -94 -96 0
-88 -89 -93 -95 -96 0
-88 -89 -94 -95 -96 0
-88 -90 -91 -93 -94 0
-88 -90 -91 -93 -95 0
-88 -90 -91 -93 -96 0
-88 -90 -91 -94 -95 0
-88 -90 -91 -94 -96 0
-88 -90 -91 -95 -96 0
-88 -90 -93 -94 -95 0
-88 -90 -93 -94 -96 0
-88 -90 -93 -95 -96 0
-88 -90 -94 -95 -96 0
-88 -91 -93 -94 -95 0
-88 -91 -93 -94 -96 0
-88 -91 -93 -95 -96 0
-88 -91 -94 -95 -96 0
-88 -93 -94 -95 -96 0
-89 -90 -91 -93 -94 0
-89 -90 -91 -93 -95 0
-89 -90 -91 -93 -96 0
-89 -90 -91 -94 -95 0
-89 -90 -91 -94 -96 0
-89 -90 -91 -95 -96 0
-89 -90 -93 -94 -95 0
-89 -90 -93 -94 -96 0
-89 -90 -93 -95 -96 0
-89 -90 -94 -95 -96 0
-89 -91 -93 -94 -95 0
-89 -91 -93 -94 -96 0
-89 -91 -93 -95 -96 0
-89 -91 -94 -95 -96 0
-89 -93 -94 -95 -96 0
-90 -91 -93 -94 -95 0
-90 -91 -93 -94 -96 0
-90 -91 -93 -95 -96 0
-90 -91 -94 -95 -96 0
-90 -93 -94 -95 -96 0
-91 -93 -94 -95 -96 0
97 98 99 100 101 102 103 104 0
97 98 99 100 101 102 103 106 0
97 98 99 100 101 102 103 107 0
97 98 99 100 101 102 103 108 0
97 98 99 100 101 102 104 106 0
97 98 99 100 101 102 104 107 0
97 98 99 100 101 102 104 108 0
97 98 99 100 101 102 106 107 0
97 98 99 100 101 102 106 108 0
97 98 99 100 101 102 107 108 0
97 98 99 100 101 103 104 106 0
97 98 99 100 101 103 104 107 0
97 98 99 100 101 103 104 108 0
97 98 99 100 101 103 106 107 0
97 98 99 100 101 103 106 108 0
97 98 99 100 101 103 107 108 0
97 98 99 100 101 104 106 107 0
97 98 99 100 101 104 106 108 0
97 98 99 100 101 104 107 108 0
97 98 99 100 101 106 107 108 0
97 98 99 100 102 103 104 106 0
97 98 99 100 102 103 104 107 0
97 98 99 100 102 103 104 108 0
97 98 99 100 102 103 106 107 0
97 98 99 100 102 103 106 108 0
97 98 99 100 102 103 107 108 0
97 98 99 100 102 104 106 107 0
97 98 99 100 102 104 106 108 0
97 98 99 100 102 104 107 108 0
97 98 99 100 102 106 107 108 0
97 98 99 100 103 104 106 107 0
97 98 99 100 103 104 106 108 0
97 98 99 100 103 104 107 108 0
97 98 99 100 103 106 107 108 0
97 98 99 100 104 106 107 108 0
97 98 99 101 102 103 104 106 0
97 98 99 101 102 103 104 107 0
97 98 99 101 102 103 104 108 0
97 98 99 101 102 103 106 107 0
97 98 99 101 102 103 106 108 0
97 98 99 101 102 103 107 108 0
97 98 99 101 102 104 106 107 0
97 98 99 101 102 104 106 108 0
97 98 99 101 102 104 107 108 0
97 98 99 101 102 106 107 108 0
97 98 99 101 103 104 106 107 0
97 98 99 101 103 104 106 108 0
97 98 99 101 103 104 107 108 0
97 98 99 101 103 106 107 108 0
97 98 99 101 104 106 107 108 0
97 98 99 102 103 104 106 107 0
97 98 99 102 103 104 106 108 0
97 98 99 102 103 104 107 108 0
97 98 99 102 103 106 107 108 0
97 98 99 102 104 106 107 108 0
97 98 99 103 104 106 107 108 0
97 98 100 101 102 103 104 106 0
97 98 100 101 102 103 104 107 0
97 98 100 101 102 103 104 108 0
97 98 100 101 102 103 106 107 0
97 98 100 101 102 103 106 108 0
97 98 100 101 102 103 107 108 0
97 98 100 101 102 104 106 107 0
97 98 100 101 102 104 106 108 0
97 98 100 101 102 104 107 108 0
97 98 100 101 102 106 107 108 0
97 98 100 101 103 104 106 107 0
97 98 100 101 103 104 106 108 0
97 98 100 101 103 104 107 108 0
97 98 100 101 103 106 107 108 0
97 98 100 101 104 106 107 108 0
97 98 100 102 103 104 106 107 0
97 98 100 102 103 104 106 108 0
97 98 100 102 103 104 107 108 0
97 98 100 102 103 106 107 108 0
97 98 100 102 104 106 107 108 0
97 98 100 103 104 106 107 108 0
97 98 101 102 103 104 106 107 0
97 98 101 102 103 104 106 108 0
97 98 101 102 103 104 107 108 0
97 98 101 102 103 106 107 108 0
97 98 101 102 104 106 107 108 0
97 98 101 103 104 106 107 108 0
97 98 102 103 104 106 107 108 0
97 99 100 101 102 103 104 106 0
97 99 100 101 102 103 104 107 0
97 99 100 101 102 103 104 108 0
97 99 100 101 102 103 106 107 0
97 99 100 101 102 103 106 108 0
97 99 100 101 102 103 107 108 0
97 99 100 101 102 104 106 107 0
97 99 100 101 102 104 106 108 0
97 99 100 101 102 104 107 108 0
97 99 100 101 102 106 107 108 0
97 99 100 101 103 104 106 107 0
97 99 100 101 103 104 106 108 0
97 99 100 101 103 104 107 108 0
97 99 100 101 103 106 107 108 0
97 99 100 101 104 106 107 108 0
97 99 100 102 103 104 106 107 0
97 99 100 102 103 104 106 108 0
97 99 100 102 103 104 107 108 0
97 99 100 102 103 106 107 108 0
97 99 100 102 104 106 107 108 0
97 99 100 103 104 106 107 108 0
97 99 101 102 103 104 106 107 0
97 99 101 102 103 104 106 108 0
97 99 101 102 103 104 107 108 0
97 99 101 102 103 106 107 108 0
97 99 101 102 104 106 107 108 0
97 99 101 103 104 106 107 108 0
97 99 102 103 104 106 107 108 0
97 100 101 102 103 104 106 107 0
97 100 101 102 103 104 106 108 0
97 100 101 102 103 104 107 108 0
97 100 101 102 103 106 107 108 0
97 100 101 102 104 106 107 108 0
97 100 101 103 104 106 107 108 0
97 100 102 103 104 106 107 108 0
97 101 102 103 104 106 107 108 0
98 99 100 101 102 103 104 106 0
98 99 100 101 102 103 104 107 0
98 99 100 101 102 103 104 108 0
98 99 100 101 102 103 106 107 0
98 99 100 101 102 103 106 108 0
98 99 100 101 102 103 107 108 0
98 99 100 101 102 104 106 107 0
98 99 100 101 102 104 106 108 0
98 99 100 101 102 104 107 108 0
98 99 100 101 102 106 107 108 0
98 99 100 101 103 104 106 107 0
98 99 100 101 103 104 106 108 0
98 99 100 101 103 104 107 108 0
98 99 100 101 103 106 107 108 0
98 99 100 101 104 106 107 108 0
98 99 100 102 103 104 106 107 0
98 99 100 102 103 104 106 108 0
98 99 100 102 103 104 107 108 0
98 99 100 102 103 106 107 108 0
98 99 100 102 104 106 107 108 0
98 99 100 103 104 106 107 108 0
98 99 101 102 103 104 106 107 0
98 99 101 102 103 104 106 108 0
98 99 101 102 103 104 107 108 0
98 99 101 102 103 106 107 108 0
98 99 101 102 104 106 107 108 0
98 99 101 103 104 106 107 108 0
98 99 102 103 104 106 107 108 0
98 100 101 102 103 104 106 107 0
98 100 101 102 103 104 106 108 0
98 100 101 102 103 104 107 108 0
98 100 101 102 103 106 107 108 0
98 100 101 102 104 106 107 108 0
98 100 101 103 104 106 107 108 0
98 100 102 103 104 106 107 108 0
98 101 102 103 104 106 107 108 0
99 100 101 102 103 104 106 107 0
99 100 101 102 103 104 106 108 0
99 100 101 102 103 104 107 108 0
99 100 101 102 103 106 107 108 0
99 100 101 102 104 106 107 108 0
99 100 101 103 104 106 107 108 0
99 100 102 103 104 106 107 108 0
99 101 102 103 104 106 107 108 0
100 101 102 103 104 106 107 108 0
-97 -98 -99 -100 -101 0
-97 -98 -99 -100 -102 0
-97 -98 -99 -100 -103 0
-97 -98 -99 -100 -104 0
-97 -98 -99 -100 -106 0
-97 -98 -99 -100 -107 0
-97 -98 -99 -100 -108 0
-97 -98 -99 -101 -102 0
-97 -98 -99 -101 -103 0
-97 -98 -99 -101 -104 0
-97 -98 -99 -101 -106 0
-97 -98 -99 -101 -107 0
-97 -98 -99 -101 -108 0
-97 -98 -99 -102 -103 0
-97 -98 -99 -102 -104 0
-97 -98 -99 -102 -106 0
-97 -98 -99 -102 -107 0
-97 -98 -99 -102 -108 0
-97 -98 -99 -103 -104 0
-97 -98 -99 -103 -106 0
-97 -98 -99 -103 -107 0
-97 -98 -99 -103 -108 0
-97 -98 -99 -104 -106 0
-97 -98 -99 -104 -107 0
-97 -98 -99 -104 -108 0
-97 -98 -99 -106 -107 0
-97 -98 -99 -106 -108 0
-97 -98 -99 -107 -108 0
-97 -98 -100 -101 -102 0
-97 -98 -100 -101 -103 0
-97 -98 -100 -101 -104 0
-97 -98 -100 -101 -106 0
-97 -98 -100 -101 -107 0
-97 -98 -100 -101 -108 0
-97 -98 -100 -102 -103 0
-97 -98 -100 -102 -104 0
-97 -98 -100 -102 -106 0
-97 -98 -100 -102 -107 0
-97 -98 -100 -102 -108 0
-97 -98 -100 -103 -104 0
-97 -98 -100 -103 -106 0
-97 -98 -100 -103 -107 0
-97 -98 -100 -103 -108 0
-97 -98 -100 -104 -106 0
-97 -98 -100 -104 -107 0
-97 -98 -100 -104 -108 0
-97 -98 -100 -106 -107 0
-97 -98 -100 -106 -108 0
-97 -98 -100 -107 -108 0
-97 -98 -101 -102 -103 0
-97 -98 -101 -102 -104 0
-97 -98 -101 -102 -106 0
-97 -98 -101 -102 -107 0
-97 -98 -101 -102 -108 0
-97 -98 -101 -103 -104 0
-97 -98 -101 -103 -106 0
-97 -98 -101 -103 -107 0
-97 -98 -101 -103 -108 0
-97 -98 -101 -104 -106 0
-97 -98 -101 -104 -107 0
-97 -98 -101 -104 -108 0
-97 -98 -101 -106 -107 0
-97 -98 -101 -106 -108 0
-97 -98 -101 -107 -108 0
-97 -98 -102 -103 -104 0
-97 -98 -102 -103 -106 0
-97 -98 -102 -103 -107 0
-97 -98 -102 -103 -108 0
-97 -98 -102 -104 -106 0
-97 -98 -102 -104 -107 0
-97 -98 -102 -104 -108 0
-97 -98 -102 -106 -107 0
-97 -98 -102 -106 -108 0
-97 -98 -102 -107 -108 0
-97 -98 -103 -104 -106 0
-97 -98 -103 -104 -107 0
-97 -98 -103 -104 -108 0
-97 -98 -103 -106 -107 0
-97 -98 -103 -106 -108 0
-97 -98 -103 -107 -108 0
-97 -98 -104 -106 -107 0
-97 -98 -104 -106 -108 0
-97 -98 -104 -107 -108 0
-97 -98 -106 -107 -108 0
-97 -99 -100 -101 -102 0
-97 -99 -100 -101 -103 0
-97 -99 -100 -101 -104 0
-97 -99 -100 -101 -106 0
-97 -99 -100 -101 -107 0
-97 -99 -100 -101 -108 0
-97 -99 -100 -102 -103 0
-97 -99 -100 -102 -104 0
-97 -99 -100 -102 -106 0
-97 -99 -100 -102 -107 0
-97 -99 -100 -102 -108 0
-97 -99 -100 -103 -104 0
-97 -99 -100 -103 -106 0
-97 -99 -100 -103 -107 0
-97 -99 -100 -103 -108 0
-97 -99 -100 -104 -106 0
-97 -99 -100 -104 -107 0
-97 -99 -100 -104 -108 0
-97 -99 -100 -106 -107 0
-97 -99 -100 -106 -108 0
-97 -99 -100 -107 -108 0
-97 -99 -101 -102 -103 0
-97 -99 -101 -102 -104 0
-97 -99 -101 -102 -106 0
-97 -99 -101 -102 -107 0
-97 -99 -101 -102 -108 0
-97 -99 -101 -103 -104 0
-97 -99 -101 -103 -106 0
-97 -99 -101 -103 -107 0
-97 -99 -101 -103 -108 0
-97 -99 -101 -104 -106 0
-97 -99 -101 -104 -107 0
-97 -99 -101 -104 -108 0
-97 -99 -101 -106 -107 0
-97 -99 -101 -106 -108 0
-97 -99 -101 -107 -108 0
-97 -99 -102 -103 -104 0
-97 -99 -102 -103 -106 0
-97 -99 -102 -103 -107 0
-97 -99 -102 -103 -108 0
-97 -99 -102 -104 -106 0
-97 -99 -102 -104 -107 0
-97 -99 -102 -104 -108 0
-97 -99 -102 -106 -107 0
-97 -99 -102 -106 -108 0
-97 -99 -102 -107 -108 0
-97 -99 -103 -104 -106 0
-97 -99 -103 -104 -107 0
-97 -99 -103 -104 -108 0
-97 -99 -103 -106 -107 0
-97 -99 -103 -106 -108 0
-97 -99 -103 -107 -108 0
-97 -99 -104 -106 -107 0
-97 -99 -104 -106 -108 0
-97 -99 -104 -107 -108 0
-97 -99 -106 -107 -108 0
-97 -100 -101 -102 -103 0
-97 -100 -101 -102 -104 0
-97 -100 -101 -102 -106 0
-97 -100 -101 -102 -107 0
-97 -100 -101 -102 -108 0
-97 -100 -101 -103 -104 0
-97 -100 -101 -103 -106 0
-97 -100 -101 -103 -107 0
-97 -100 -101 -103 -108 0
-97 -100 -101 -104 -106 0
-97 -100 -101 -104 -107 0
-97 -100 -101 -104 -108 0
-97 -100 -101 -106 -107 0
-97 -100 -101 -106 -108 0
-97 -100 -101 -107 -108 0
-97 -100 -102 -103 -104 0
-97 -100 -102 -103 -106 0
-97 -100 -102 -103 -107 0
-97 -100 -102 -103 -108 0
-97 -100 -102 -104 -106 0
-97 -100 -102 -104 -107 0
-97 -100 -102 -104 -108 0
-97 -100 -102 -106 -107 0
-97 -100 -102 -106 -108 0
-97 -100 -102 -107 -108 0
-97 -100 -103 -104 -106 0
-97 -100 -103 -104 -107 0
-97 -100 -103 -104 -108 0
-97 -100 -103 -106 -107 0
-97 -100 -103 -106 -108 0
-97 -100 -103 -107 -108 0
-97 -100 -104 -106 -107 0
-97 -100 -104 -106 -108 0
-97 -100 -104 -107 -108 0
-97 -100 -106 -107 -108 0
-97 -101 -102 -103 -104 0
-97 -101 -102 -103 -106 0
-97 -101 -102 -103 -107 0
-97 -101 -102 -103 -108 0
-97 -101 -102 -104 -106 0
-97 -101 -102 -104 -107 0
-97 -101 -102 -104 -108 0
-97 -101 -102 -106 -107 0
-97 -101 -102 -106 -108 0
-97 -101 -102 -107 -108 0
-97 -101 -103 -104 -106 0
-97 -101 -103 -104 -107 0
-97 -101 -103 -104 -108 0
-97 -101 -103 -106 -107 0
-97 -101 -103 -106 -108 0
-97 -101 -103 -107 -108 0
-97 -101 -104 -106 -107 0
-97 -101 -104 -106 -108 0
-97 -101 -104 -107 -108 0
-97 -101 -106 -107 -108 0
-97 -102 -103 -104 -106 0
-97 -102 -103 -104 -107 0
-97 -102 -103 -104 -108 0
-97 -102 -103 -106 -107 0
-97 -102 -103 -106 -108 0
-97 -102 -103 -107 -108 0
-97 -102 -104 -106 -107 0
-97 -102 -104 -106 -108 0
-97 -102 -104 -107 -108 0
-97 -102 -106 -107 -108 0
-97 -103 -104 -106 -107 0
-97 -103 -104 -106 -108 0
-97 -103 -104 -107 -108 0
-97 -103 -106 -107 -108 0
-97 -104 -106 -107 -108 0
-98 -99 -100 -101 -102 0
-98 -99 -100 -101 -103 0
-98 -99 -100 -101 -104 0
-98 -99 -100 -101 -106 0
-98 -99 -100 -101 -107 0
-98 -99 -100 -101 -108 0
-98 -99 -100 -102 -103 0
-98 -99 -100 -102 -104 0
-98 -99 -100 -102 -106 0
-98 -99 -100 -102 -107 0
-98 -99 -100 -102 -108 0
-98 -99 -100 -103 -104 0
-98 -99 -100 -103 -106 0
-98 -99 -100 -103 -107 0
-98 -99 -100 -103 -108 0
-98 -99 -100 -104 -106 0
-98 -99 -100 -104 -107 0
-98 -99 -100 -104 -108 0
-98 -99 -100 -106 -107 0
-98 -99 -100 -106 -108 0
-98 -99 -100 -107 -108 0
-98 -99 -101 -102 -103 0
-98 -99 -101 -102 -104 0
-98 -99 -101 -102 -106 0
-98 -99 -101 -102 -107 0
-98 -99 -101 -102 -108 0
-98 -99 -101 -103 -104 0
-98 -99 -101 -103 -106 0
-98 -99 -101 -103 -107 0
-98 -99 -101 -103 -108 0
-98 -99 -101 -104 -106 0
-98 -99 -101 -104 -107 0
-98 -99 -101 -104 -108 0
-98 -99 -101 -106 -107 0
-98 -99 -101 -106 -108 0
-98 -99 -101 -107 -108 0
-98 -99 -102 -103 -104 0
-98 -99 -102 -103 -106 0
-98 -99 -102 -103 -107 0
-98 -99 -102 -103 -108 0
-98 -99 -102 -104 -106 0
-98 -99 -102 -104 -107 0
-98 -99 -102 -104 -108 0
-98 -99 -102 -106 -107 0
-98 -99 -102 -106 -108 0
-98 -99 -102 -107 -108 0
-98 -99 -103 -104 -106 0
-98 -99 -103 -104 -107 0
-98 -99 -103 -104 -108 0
-98 -99 -103 -106 -107 0
-98 -99 -103 -106 -108 0
-98 -99 -103 -107 -108 0
-98 -99 -104 -106 -107 0
-98 -99 -104 -106 -108 0
-98 -99 -104 -107 -108 0
-98 -99 -106 -107 -108 0
-98 -100 -101 -102 -103 0
-98 -100 -101 -102 -104 0
-98 -100 -101 -102 -106 0
-98 -100 -101 -102 -107 0
-98 -100 -101 -102 -108 0
-98 -100 -101 -103 -104 0
-98 -100 -101 -103 -106 0
-98 -100 -101 -103 -107 0
-98 -100 -101 -103 -108 0
-98 -100 -101 -104 -106 0
-98 -100 -101 -104 -107 0
-98 -100 -101 -104 -108 0
-98 -100 -101 -106 -107 0
-98 -100 -101 -106 -108 0
-98 -100 -101 -107 -108 0
-98 -100 -102 -103 -104 0
-98 -100 -102 -103 -106 0
-98 -100 -102 -103 -107 0
-98 -100 -102 -103 -108 0
-98 -100 -102 -104 -106 0
-98 -100 -102 -104 -107 0
-98 -100 -102 -104 -108 0
-98 -100 -102 -106 -107 0
-98 -100 -102 -106 -108 0
-98 -100 -102 -107 -108 0
-98 -100 -103 -104 -106 0
-98 -100 -103 -104 -107 0
-98 -100 -103 -104 -108 0
-98 -100 -103 -106 -107 0
-98 -100 -103 -106 -108 0
-98 -100 -103 -107 -108 0
-98 -100 -104 -106 -107 0
-98 -100 -104 -106 -108 0
-98 -100 -104 -107 -108 0
-98 -100 -106 -107 -108 0
-98 -101 -102 -103 -104 0
-98 -101 -102 -103 -106 0
-98 -101 -102 -103 -107 0
-98 -101 -102 -103 -108 0
-98 -101 -102 -104 -106 0
-98 -101 -102 -104 -107 0
-98 -101 -102 -104 -108 0
-98 -101 -102 -106 -107 0
-98 -101 -102 -106 -108 0
-98 -101 -102 -107 -108 0
-98 -101 -103 -104 -106 0
-98 -101 -103 -104 -107 0
-98 -101 -103 -104 -108 0
-98 -101 -103 -106 -107 0
-98 -101 -103 -106 -108 0
-98 -101 -103 -107 -108 0
-98 -101 -104 -106 -107 0
-98 -101 -104 -106 -108 0
-98 -101 -104 -107 -108 0
-98 -101 -106 -107 -108 0
-98 -102 -103 -104 -106 0
-98 -102 -103 -104 -107 0
-98 -102 -103 -104 -108 0
-98 -102 -103 -106 -107 0
-98 -102 -103 -106 -108 0
-98 -102 -103 -107 -108 0
-98 -102 -104 -106 -107 0
-98 -102 -104 -106 -108 0
-98 -102 -104 -107 -108 0
-98 -102 -106 -107 -108 0
-98 -103 -104 -106 -107 0
-98 -103 -104 -106 -108 0
-98 -103 -104 -107 -108 0
-98 -103 -106 -107 -108 0
-98 -104 -106 -107 -108 0
-99 -100 -101 -102 -103 0
-99 -100 -101 -102 -104 0
-99 -100 -101 -102 -106 0
-99 -100 -101 -102 -107 0
-99 -100 -101 -102 -108 0
-99 -100 -101 -103 -104 0
-99 -100 -101 -103 -106 0
-99 -100 -101 -103 -107 0
-99 -100 -101 -103 -108 0
-99 -100 -101 -104 -106 0
-99 -100 -101 -104 -107 0
-99 -100 -101 -104 -108 0
-99 -100 -101 -106 -107 0
-99 -100 -101 -106 -108 0
-99 -100 -101 -107 -108 0
-99 -100 -102 -103 -104 0
-99 -100 -102 -103 -106 0
-99 -100 -102 -103 -107 0
-99 -100 -102 -103 -108 0
-99 -100 -102 -104 -106 0
-99 -100 -102 -104 -107 0
-99 -100 -102 -104 -108 0
-99 -100 -102 -106 -107 0
-99 -100 -102 -106 -108 0
-99 -100 -102 -107 -108 0
-99 -100 -103 -104 -106 0
-99 -100 -103 -104 -107 0
-99 -100 -103 -104 -108 0
-99 -100 -103 -106 -107 0
-99 -100 -103 -106 -108 0
-99 -100 -103 -107 -108 0
-99 -100 -104 -106 -107 0
-99 -100 -104 -106 -108 0
-99 -100 -104 -107 -108 0
-99 -100 -106 -107 -108 0
-99 -101 -102 -103 -104 0
-99 -101 -102 -103 -106 0
-99 -101 -102 -103 -107 0
-99 -101 -102 -103 -108 0
-99 -101 -102 -104 -106 0
-99 -101 -102 -104 -107 0
-99 -101 -102 -104 -108 0
-99 -101 -102 -106 -107 0
-99 -101 -102 -106 -108 0
-99 -101 -102 -107 -108 0
-99 -101 -103 -104 -106 0
-99 -101 -103 -104 -107 0
-99 -101 -103 -104 -108 0
-99 -101 -103 -106 -107 0
-99 -101 -103 -106 -108 0
-99 -101 -103 -107 -108 0
-99 -101 -104 -106 -107 0
-99 -101 -104 -106 -108 0
-99 -101 -104 -107 -108 0
-99 -101 -106 -107 -108 0
-99 -102 -103 -104 -106 0
-99 -102 -103 -104 -107 0
-99 -102 -103 -104 -108 0
-99 -102 -103 -106 -107 0
-99 -102 -103 -106 -108 0
-99 -102 -103 -107 -108 0
-99 -102 -104 -106 -107 0
-99 -102 -104 -106 -108 0
-99 -102 -104 -107 -108 0
-99 -102 -106 -107 -108 0
-99 -103 -104 -106 -107 0
-99 -103 -104 -106 -108 0
-99 -103 -104 -107 -108 0
-99 -103 -106 -107 -108 0
-99 -104 -106 -107 -108 0
-100 -101 -102 -103 -104 0
-100 -101 -102 -103 -106 0
-100 -101 -102 -103 -107 0
-100 -101 -102 -103 -108 0
-100 -101 -102 -104 -106 0
-100 -101 -102 -104 -107 0
-100 -101 -102 -104 -108 0
-100 -101 -102 -106 -107 0
-100 -101 -102 -106 -108 0
-100 -101 -102 -107 -108 0
-100 -101 -103 -104 -106 0
-100 -101 -103 -104 -107 0
-100 -101 -103 -104 -108 0
-100 -101 -103 -106 -107 0
-100 -101 -103 -106 -108 0
-100 -101 -103 -107 -108 0
-100 -101 -104 -106 -107 0
-100 -101 -104 -106 -108 0
-100 -101 -104 -107 -108 0
-100 -101 -106 -107 -108 0
-100 -102 -103 -104 -106 0
-100 -102 -103 -104 -107 0
-100 -102 -103 -104 -108 0
-100 -102 -103 -106 -107 0
-100 -102 -103 -106 -108 0
-100 -102 -103 -107 -108 0
-100 -102 -104 -106 -107 0
-100 -102 -104 -106 -108 0
-100 -102 -104 -107 -108 0
-100 -102 -106 -107 -108 0
-100 -103 -104 -106 -107 0
-100 -103 -104 -106 -108 0
-100 -103 -104 -107 -108 0
-100 -103 -106 -107 -108 0
-100 -104 -106 -107 -108 0
-101 -102 -103 -104 -106 0
-101 -102 -103 -104 -107 0
-101 -102 -103 -104 -108 0
-101 -102 -103 -106 -107 0
-101 -102 -103 -106 -108 0
-101 -102 -103 -107 -108 0
-101 -102 -104 -106 -107 0
-101 -102 -104 -106 -108 0
-101 -102 -104 -107 -108 0
-101 -102 -106 -107 -108 0
-101 -103 -104 -106 -107 0
-101 -103 -104 -106 -108 0
-101 -103 -104 -107 -108 0
-101 -103 -106 -107 -108 0
-101 -104 -106 -107 -108 0
-102 -103 -104 -106 -107 0
-102 -103 -104 -106 -108 0
-102 -103 -104 -107 -108 0
-102 -103 -106 -107 -108 0
-102 -104 -106 -107 -108 0
-103 -104 -106 -107 -108 0
109 110 111 112 113 114 115 116 0
109 110 111 112 113 114 115 117 0
109 110 111 112 113 114 115 119 0
109 110 111 112 113 114 115 120 0
109 110 111 112 113 114 116 117 0
109 110 111 112 113 114 116 119 0
109 110 111 112 113 114 116 120 0
109 110 111 112 113 114 117 119 0
109 110 111 112 113 114 117 120 0
109 110 111 112 113 114 119 120 0
109 110 111 112 113 115 116 117 0
109 110 111 112 113 115 116 119 0
109 110 111 112 113 115 116 120 0
109 110 111 112 113 115 117 119 0
109 110 111 112 113 115 117 120 0
109 110 111 112 113 115 119 120 0
109 110 111 112 113 116 117 119 0
109 110 111 112 113 116 117 120 0
109 110 111 112 113 116 119 120 0
109 110 111 112 113 117 119 120 0
109 110 111 112 114 115 116 117 0
109 110 111 112 114 115 116 119 0
109 110 111 112 114 115 116 120 0
109 110 111 112 114 115 117 119 0
109 110 111 112 114 115 117 120 0
109 110 111 112 114 115 119 120 0
109 110 111 112 114 116 117 119 0
109 110 111 112 114 116 117 120 0
109 110 111 112 114 116 119 120 0
109 110 111 112 114 117 119 120 0
109 110 111 112 115 116 117 119 0
109 110 111 112 115 116 117 120 0
109 110 111 112 115 116 119 120 0
109 110 111 112 115 117 119 120 0
109 110 111 112 116 117 119 120 0
109 110 111 113 114 115 116 117 0
109 110 111 113 114 115 116 119 0
109 110 111 113 114 115 116 120 0
109 110 111 113 114 115 117 119 0
109 110 111 113 114 115 117 120 0
109 110 111 113 114 115 119 120 0
109 110 111 113 114 116 117 119 0
109 110 111 113 114 116 117 120 0
109 110 111 113 114 116 119 120 0
109 110 111 113 114 117 119 120 0
109 110 111 113 115 116 117 119 0
109 110 111 113 115 116 117 120 0
109 110 111 113 115 116 119 120 0
109 110 111 113 115 117 119 120 0
109 110 111 113 116 117 119 120 0
109 110 111 114 115 116 117 119 0
109 110 111 114 115 116 117 120 0
109 110 111 114 115 116 119 120 0
109 110 111 114 115 117 119 120 0
109 110 111 114 116 117 119 120 0
109 110 111 115 116 117 119 120 0
109 110 112 113 114 115 116 117 0
109 110 112 113 114 115 116 119 0
109 110 112 113 114 115 116 120 0
109 110 112 113 114 115 117 119 0
109 110 112 113 114 115 117 120 0
109 110 112 113 114 115 119 120 0
109 110 112 113 114 116 117 119 0
109 110 112 113 114 116 117 120 0
109 110 112 113 114 116 119 120 0
109 110 112 113 114 117 119 120 0
109 110 112 113 115 116 117 119 0
109 110 112 113 115 116 117 120 0
109 110 112 113 115 116 119 120 0
109 110 112 113 115 117 119 120 0
109 110 112 113 116 117 119 120 0
109 110 112 114 115 116 117 119 0
109 110 112 114 115 116 117 120 0
109 110 112 114 115 116 119 120 0
109 110 112 114 115 117 119 120 0
109 110 112 114 116 117 119 120 0
109 110 112 115 116 117 119 120 0
109 110 113 114 115 116 117 119 0
109 110 113 114 115 116 117 120 0
109 110 113 114 115 116 119 120 0
109 110 113 114 115 117 119 120 0
109 110 113 114 116 117 119 120 0
109 110 113 115 116 117 119 120 0
109 110 114 115 116 117 119 120 0
109 111 112 113 114 115 116 117 0
109 111 112 113 114 115 116 119 0
109 111 112 113 114 115 116 120 0
109 111 112 113 114 115 117 119 0
109 111 112 113 114 115 117 120 0
109 111 112 113 114 115 119 120 0
109 111 112 113 114 116 117 119 0
109 111 112 113 114 116 117 120 0
109 111 112 113 114 116 119 120 0
109 111 112 113 114 117 119 120 0
109 111 112 113 115 116 117 119 0
109 111 112 113 115 116 117 120 0
109 111 112 113 115 116 119 120 0
109 111 112 113 115 117 119 120 0
109 111 112 113 116 117 119 120 0
109 111 112 114 115 116 117 119 0
109 111 112 114 115 116 117 120 0
109 111 112 114 115 116 119 120 0
109 111 112 114 115 117 119 120 0
109 111 112 114 116 117 119 120 0
109 111 112 115 116 117 119 120 0
109 111 113 114 115 116 117 119 0
109 111 113 114 115 116 117 120 0
109 111 113 114 115 116 119 120 0
109 111 113 114 115 117 119 120 0
109 111 113 114 116 117 119 120 0
109 111 113 115 116 117 119 120 0
109 111 114 115 116 117 119 120 0
109 112 113 114 115 116 117 119 0
109 112 113 114 115 116 117 120 0
109 112 113 114 115 116 119 120 0
109 112 113 114 115 117 119 120 0
109 112 113 114 116 117 119 120 0
109 112 113 115 116 117 119 120 0
109 112 114 115 116 117 119 120 0
109 113 114 115 116 117 119 120 0
110 111 112 113 114 115 116 117 0
110 111 112 113 114 115 116 119 0
110 111 112 113 114 115 116 120 0
110 111 112 113 114 115 117 119 0
110 111 112 113 114 115 117 120 0
110 111 112 113 114 115 119 120 0
110 111 112 113 114 116 117 119 0
110 111 112 113 114 116 117 120 0
110 111 112 113 114 116 119 120 0
110 111 112 113 114 117 119 120 0
110 111 112 113 115 116 117 119 0
110 111 112 113 115 116 117 120 0
110 111 112 113 115 116 119 120 0
110 111 112 113 115 117 119 120 0
110 111 112 113 116 117 119 120 0
110 111 112 114 115 116 117 119 0
110 111 112 114 115 116 117 120 0
110 111 112 114 115 116 119 120 0
110 111 112 114 115 117 119 120 0
110 111 112 114 116 117 119 120 0
110 111 112 115 116 117 119 120 0
110 111 113 114 115 116 117 119 0
110 111 113 114 115 116 117 120 0
110 111 113 114 115 116 119 120 0
110 111 113 114 115 117 119 120 0
110 111 113 114 116 117 119 120 0
110 111 113 115 116 117 119 120 0
110 111 114 115 116 117 119 120 0
110 112 113 114 115 116 117 119 0
110 112 113 114 115 116 117 120 0
110 112 113 114 115 116 119 120 0
110 112 113 114 115 117 119 120 0
110 112 113 114 116 117 119 120 0
110 112 113 115 116 117 119 120 0
110 112 114 115 116 117 119 120 0
110 113 114 115 116 117 119 120 0
111 112 113 114 115 116 117 119 0
111 112 113 114 115 116 117 120 0
111 112 113 114 115 116 119 120 0
111 112 113 114 115 117 119 120 0
111 112 113 114 116 117 119 120 0
111 112 113 115 116 117 119 120 0
111 112 114 115 116 117 119 120 0
111 113 114 115 116 117 119 120 0
112 113 114 115 116 117 119 120 0
-109 -110 -111 -112 -113 0
-109 -110 -111 -112 -114 0
-109 -110 -111 -112 -115 0
-109 -110 -111 -112 -116 0
-109 -110 -111 -112 -117 0
-109 -110 -111 -112 -119 0
-109 -110 -111 -112 -120 0
-109 -110 -111 -113 -114 0
-109 -110 -111 -113 -115 0
-109 -110 -111 -113 -116 0
-109 -110 -111 -113 -117 0
-109 -110 -111 -113 -119 0
-109 -110 -111 -113 -120 0
-109 -110 -111 -114 -115 0
-109 -110 -111 -114 -116 0
-109 -110 -111 -114 -117 0
-109 -110 -111 -114 -119 0
-109 -110 -111 -114 -120 0
-109 -110 -111 -115 -116 0
-109 -110 -111 -115 -117 0
-109 -110 -111 -115 -119 0
-109 -110 -111 -115 -120 0
-109 -110 -111 -116 -117 0
-109 -110 -111 -116 -119 0
-109 -110 -111 -116 -120 0
-109 -110 -111 -117 -119 0
-109 -110 -111 -117 -120 0
-109 -110 -111 -119 -120 0
-109 -110 -112 -113 -114 0
-109 -110 -112 -113 -115 0
-109 -110 -112 -113 -116 0
-109 -110 -112 -113 -117 0
-109 -110 -112 -113 -119 0
-109 -110 -112 -113 -120 0
-109 -110 -112 -114 -115 0
-109 -110 -112 -114 -116 0
-109 -110 -112 -114 -117 0
-109 -110 -112 -114 -119 0
-109 -110 -112 -114 -120 0
-109 -110 -112 -115 -116 0
-109 -110 -112 -115 -117 0
-109 -110 -112 -115 -119 0
-109 -110 -112 -115 -120 0
-109 -110 -112 -116 -117 0
-109 -110 -112 -116 -119 0
-109 -110 -112 -116 -120 0
-109 -110 -112 -117 -119 0
-109 -110 -112 -117 -120 0
-109 -110 -112 -119 -120 0
-109 -110 -113 -114 -115 0
-109 -110 -113 -114 -116 0
-109 -110 -113 -114 -117 0
-109 -110 -113 -114 -119 0
-109 -110 -113 -114 -120 0
-109 -110 -113 -115 -116 0
-109 -110 -113 -115 -117 0
-109 -110 -113 -115 -119 0
-109 -110 -113 -115 -120 0
-109 -110 -113 -116 -117 0
-109 -110 -113 -116 -119 0
-109 -110 -113 -116 -120 0
-109 -110 -113 -117 -119 0
-109 -110 -113 -117 -120 0
-109 -110 -113 -119 -120 0
-109 -110 -114 -115 -116 0
-109 -110 -114 -115 -117 0
-109 -110 -114 -115 -119 0
-109 -110 -114 -115 -120 0
-109 -110 -114 -116 -117 0
-109 -110 -114 -116 -119 0
-109 -110 -114 -116 -120 0
-109 -110 -114 -117 -119 0
-109 -110 -114 -117 -120 0
-109 -110 -114 -119 -120 0
-109 -110 -115 -116 -117 0
-109 -110 -115 -116 -119 0
-109 -110 -115 -116 -120 0
-109 -110 -115 -117 -119 0
-109 -110 -115 -117 -120 0
-109 -110 -115 -119 -120 0
-109 -110 -116 -117 -119 0
-109 -110 -116 -117 -120 0
-109 -110 -116 -119 -120 0
-109 -110 -117 -119 -120 0
-109 -111 -112 -113 -114 0
-109 -111 -112 -113 -115 0
-109 -111 -112 -113 -116 0
-109 -111 -112 -113 -117 0
-109 -111 -112 -113 -119 0
-109 -111 -112 -113 -120 0
-109 -111 -112 -114 -115 0
-109 -111 -112 -114 -116 0
-109 -111 -112 -114 -117 0
-109 -111 -112 -114 -119 0
-109 -111 -112 -114 -120 0
-109 -111 -112 -115 -116 0
-109 -111 -112 -115 -117 0
-109 -111 -112 -115 -119 0
-109 -111 -112 -115 -120 0
-109 -111 -112 -116 -117 0
-109 -111 -112 -116 -119 0
-109 -111 -112 -116 -120 0
-109 -111 -112 -117 -119 0
-109 -111 -112 -117 -120 0
-109 -111 -112 -119 -120 0
-109 -111 -113 -114 -115 0
-109 -111 -113 -114 -116 0
-109 -111 -113 -114 -117 0
-109 -111 -113 -114 -119 0
-109 -111 -113 -114 -120 0
-109 -111 -113 -115 -116 0
-109 -111 -113 -115 -117 0
-109 -111 -113 -115 -119 0
-109 -111 -113 -115 -120 0
-109 -111 -113 -116 -117 0
-109 -111 -113 -116 -119 0
-109 -111 -113 -116 -120 0
-109 -111 -113 -117 -119 0
-109 -111 -113 -117 -120 0
-109 -111 -113 -119 -120 0
-109 -111 -114 -115 -116 0
-109 -111 -114 -115 -117 0
-109 -111 -114 -115 -119 0
-109 -111 -114 -115 -120 0
-109 -111 -114 -116 -117 0
-109 -111 -114 -116 -119 0
-109 -111 -114 -116 -120 0
-109 -111 -114 -117 -119 0
-109 -111 -114 -117 -120 0
-109 -111 -114 -119 -120 0
-109 -111 -115 -116 -117 0
-109 -111 -115 -116 -119 0
-109 -111 -115 -116 -120 0
-109 -111 -115 -117 -119 0
-109 -111 -115 -117 -120 0
-109 -111 -115 -119 -120 0
-109 -111 -116 -117 -119 0
-109 -111 -116 -117 -120 0
-109 -111 -116 -119 -120 0
-109 -111 -117 -119 -120 0
-109 -112 -113 -114 -115 0
-109 -112 -113 -114 -116 0
-109 -112 -113 -114 -117 0
-109 -112 -113 -114 -119 0
-109 -112 -113 -114 -120 0
-109 -112 -113 -115 -116 0
-109 -112 -113 -115 -117 0
-109 -112 -113 -115 -119 0
-109 -112 -113 -115 -120 0
-109 -112 -113 -116 -117 0
-109 -112 -113 -116 -119 0
-109 -112 -113 -116 -120 0
-109 -112 -113 -117 -119 0
-109 -112 -113 -117 -120 0
-109 -112 -113 -119 -120 0
-109 -112 -114 -115 -116 0
-109 -112 -114 -115 -117 0
-109 -112 -114 -115 -119 0
-109 -112 -114 -115 -120 0
-109 -112 -114 -116 -117 0
-109 -112 -114 -116 -119 0
-109 -112 -114 -116 -120 0
-109 -112 -114 -117 -119 0
-109 -112 -114 -117 -120 0
-109 -112 -114 -119 -120 0
-109 -112 -115 -116 -117 0
-109 -112 -115 -116 -119 0
-109 -112 -115 -116 -120 0
-109 -112 -115 -117 -119 0
-109 -112 -115 -117 -120 0
-109 -112 -115 -119 -120 0
-109 -112 -116 -117 -119 0
-109 -112 -116 -117 -120 0
-109 -112 -116 -119 -120 0
-109 -112 -117 -119 -120 0
-109 -113 -114 -115 -116 0
-109 -113 -114 -115 -117 0
-109 -113 -114 -115 -119 0
-109 -113 -114 -115 -120 0
-109 -113 -114 -116 -117 0
-109 -113 -114 -116 -119 0
-109 -113 -114 -116 -120 0
-109 -113 -114 -117 -119 0
-109 -113 -114 -117 -120 0
-109 -113 -114 -119 -120 0
-109 -113 -115 -116 -117 0
-109 -113 -115 -116 -119 0
-109 -113 -115 -116 -120 0
-109 -113 -115 -117 -119 0
-109 -113 -115 -117 -120 0
-109 -113 -115 -119 -120 0
-109 -113 -116 -117 -119 0
-109 -113 -116 -117 -120 0
-109 -113 -116 -119 -120 0
-109 -113 -117 -119 -120 0
-109 -114 -115 -116 -117 0
-109 -114 -115 -116 -119 0
-109 -114 -115 -116 -120 0
-109 -114 -115 -117 -119 0
-109 -114 -115 -117 -120 0
-109 -114 -115 -119 -120 0
-109 -114 -116 -117 -119 0
-109 -114 -116 -117 -120 0
-109 -114 -116 -119 -120 0
-109 -114 -117 -119 -120 0
-109 -115 -116 -117 -119 0
-109 -115 -116 -117 -120 0
-109 -115 -116 -119 -120 0
-109 -115 -117 -119 -120 0
-109 -116 -117 -119 -120 0
-110 -111 -112 -113 -114 0
-110 -111 -112 -113 -115 0
-110 -111 -112 -113 -116 0
-110 -111 -112 -113 -117 0
-110 -111 -112 -113 -119 0
-110 -111 -112 -113 -120 0
-110 -111 -112 -114 -115 0
-110 -111 -112 -114 -116 0
-110 -111 -112 -114 -117 0
-110 -111 -112 -114 -119 0
-110 -111 -112 -114 -120 0
-110 -111 -112 -115 -116 0
-110 -111 -112 -115 -117 0
-110 -111 -112 -115 -119 0
-110 -111 -112 -115 -120 0
-110 -111 -112 -116 -117 0
-110 -111 -112 -116 -119 0
-110 -111 -112 -116 -120 0
-110 -111 -112 -117 -119 0
-110 -111 -112 -117 -120 0
-110 -111 -112 -119 -120 0
-110 -111 -113 -114 -115 0
-110 -111 -113 -114 -116 0
-110 -111 -113 -114 -117 0
-110 -111 -113 -114 -119 0
-110 -111 -113 -114 -120 0
-110 -111 -113 -115 -116 0
-110 -111 -113 -115 -117 0
-110 -111 -113 -115 -119 0
-110 -111 -113 -115 -120 0
-110 -111 -113 -116 -117 0
-110 -111 -113 -116 -119 0
-110 -111 -113 -116 -120 0
-110 -111 -113 -117 -119 0
-110 -111 -113 -117 -120 0
-110 -111 -113 -119 -120 0
-110 -111 -114 -115 -116 0
-110 -111 -114 -115 -117 0
-110 -111 -114 -115 -119 0
-110 -111 -114 -115 -120 0
-110 -111 -114 -116 -117 0
-110 -111 -114 -116 -119 0
-110 -111 -114 -116 -120 0
-110 -111 -114 -117 -119 0
-110 -111 -114 -117 -120 0
-110 -111 -114 -119 -120 0
-110 -111 -115 -116 -117 0
-110 -111 -115 -116 -119 0
-110 -111 -115 -116 -120 0
-110 -111 -115 -117 -119 0
-110 -111 -115 -117 -120 0
-110 -111 -115 -119 -120 0
-110 -111 -116 -117 -119 0
-110 -111 -116 -117 -120 0
-110 -111 -116 -119 -120 0
-110 -111 -117 -119 -120 0
-110 -112 -113 -114 -115 0
-110 -112 -113 -114 -116 0
-110 -112 -113 -114 -117 0
-110 -112 -113 -114 -119 0
-110 -112 -113 -114 -120 0
-110 -112 -113 -115 -116 0
-110 -112 -113 -115 -117 0
-110 -112 -113 -115 -119 0
-110 -112 -113 -115 -120 0
-110 -112 -113 -116 -117 0
-110 -112 -113 -116 -119 0
-110 -112 -113 -116 -120 0
-110 -112 -113 -117 -119 0
-110 -112 -113 -117 -120 0
-110 -112 -113 -119 -120 0
-110 -112 -114 -115 -116 0
-110 -112 -114 -115 -117 0
-110 -112 -114 -115 -119 0
-110 -112 -114 -115 -120 0
-110 -112 -114 -116 -117 0
-110 -112 -114 -116 -119 0
-110 -112 -114 -116 -120 0
-110 -112 -114 -117 -119 0
-110 -112 -114 -117 -120 0
-110 -112 -114 -119 -120 0
-110 -112 -115 -116 -117 0
-110 -112 -115 -116 -119 0
-110 -112 -115 -116 -120 0
-110 -112 -115 -117 -119 0
-110 -112 -115 -117 -120 0
-110 -112 -115 -119 -120 0
-110 -112 -116 -117 -119 0
-110 -112 -116 -117 -120 0
-110 -112 -116 -119 -120 0
-110 -112 -117 -119 -120 0
-110 -113 -114 -115 -116 0
-110 -113 -114 -115 -117 0
-110 -113 -114 -115 -119 0
-110 -113 -114 -115 -120 0
-110 -113 -114 -116 -117 0
-110 -113 -114 -116 -119 0
-110 -113 -114 -116 -120 0
-110 -113 -114 -117 -119 0
-110 -113 -114 -117 -120 0
-110 -113 -114 -119 -120 0
-110 -113 -115 -116 -117 0
-110 -113 -115 -116 -119 0
-110 -113 -115 -116 -120 0
-110 -113 -115 -117 -119 0
-110 -113 -115 -117 -120 0
-110 -113 -115 -119 -120 0
-110 -113 -116 -117 -119 0
-110 -113 -116 -117 -120 0
-110 -113 -116 -119 -120 0
-110 -113 -117 -119 -120 0
-110 -114 -115 -116 -117 0
-110 -114 -115 -116 -119 0
-110 -114 -115 -116 -120 0
-110 -114 -115 -117 -119 0
-110 -114 -115 -117 -120 0
-110 -114 -115 -119 -120 0
-110 -114 -116 -117 -119 0
-110 -114 -116 -117 -120 0
-110 -114 -116 -119 -120 0
-110 -114 -117 -119 -120 0
-110 -115 -116 -117 -119 0
-110 -115 -116 -117 -120 0
-110 -115 -116 -119 -120 0
-110 -115 -117 -119 -120 0
-110 -116 -117 -119 -120 0
-111 -112 -113 -114 -115 0
-111 -112 -113 -114 -116 0
-111 -112 -113 -114 -117 0
-111 -112 -113 -114 -119 0
-111 -112 -113 -114 -120 0
-111 -112 -113 -115 -116 0
-111 -112 -113 -115 -117 0
-111 -112 -113 -115 -119 0
-111 -112 -113 -115 -120 0
-111 -112 -113 -116 -117 0
-111 -112 -113 -116 -119 0
-111 -112 -113 -116 -120 0
-111 -112 -113 -117 -119 0
-111 -112 -113 -117 -120 0
-111 -112 -113 -119 -120 0
-111 -112 -114 -115 -116 0
-111 -112 -114 -115 -117 0
-111 -112 -114 -115 -119 0
-111 -112 -114 -115 -120 0
-111 -112 -114 -116 -117 0
-111 -112 -114 -116 -119 0
-111 -112 -114 -116 -120 0
-111 -112 -114 -117 -119 0
-111 -112 -114 -117 -120 0
-111 -112 -114 -119 -120 0
-111 -112 -115 -116 -117 0
-111 -112 -115 -116 -119 0
-111 -112 -115 -116 -120 0
-111 -112 -115 -117 -119 0
-111 -112 -115 -117 -120 0
-111 -112 -115 -119 -120 0
-111 -112 -116 -117 -119 0
-111 -112 -116 -117 -120 0
-111 -112 -116 -119 -120 0
-111 -112 -117 -119 -120 0
-111 -113 -114 -115 -116 0
-111 -113 -114 -115 -117 0
-111 -113 -114 -115 -119 0
-111 -113 -114 -115 -120 0
-111 -113 -114 -116 -117 0
-111 -113 -114 -116 -119 0
-111 -113 -114 -116 -120 0
-111 -113 -114 -117 -119 0
-111 -113 -114 -117 -120 0
-111 -113 -114 -119 -120 0
-111 -113 -115 -116 -117 0
-111 -113 -115 -116 -119 0
-111 -113 -115 -116 -120 0
-111 -113 -115 -117 -119 0
-111 -113 -115 -117 -120 0
-111 -113 -115 -119 -120 0
-111 -113 -116 -117 -119 0
-111 -113 -116 -117 -120 0
-111 -113 -116 -119 -120 0
-111 -113 -117 -119 -120 0
-111 -114 -115 -116 -117 0
-111 -114 -115 -116 -119 0
-111 -114 -115 -116 -120 0
-111 -114 -115 -117 -119 0
-111 -114 -115 -117 -120 0
-111 -114 -115 -119 -120 0
-111 -114 -116 -117 -119 0
-111 -114 -116 -117 -120 0
-111 -114 -116 -119 -120 0
-111 -114 -117 -119 -120 0
-111 -115 -116 -117 -119 0
-111 -115 -116 -117 -120 0
-111 -115 -116 -119 -120 0
-111 -115 -117 -119 -120 0
-111 -116 -117 -119 -120 0
-112 -113 -114 -115 -116 0
-112 -113 -114 -115 -117 0
-112 -113 -114 -115 -119 0
-112 -113 -114 -115 -120 0
-112 -113 -114 -116 -117 0
-112 -113 -114 -116 -119 0
-112 -113 -114 -116 -120 0
-112 -113 -114 -117 -119 0
-112 -113 -114 -117 -120 0
-112 -113 -114 -119 -120 0
-112 -113 -115 -116 -117 0
-112 -113 -115 -116 -119 0
-112 -113 -115 -116 -120 0
-112 -113 -115 -117 -119 0
-112 -113 -115 -117 -120 0
-112 -113 -115 -119 -120 0
-112 -113 -116 -117 -119 0
-112 -113 -116 -117 -120 0
-112 -113 -116 -119 -120 0
-112 -113 -117 -119 -120 0
-112 -114 -115 -116 -117 0
-112 -114 -115 -116 -119 0
-112 -114 -115 -116 -120 0
-112 -114 -115 -117 -119 0
-112 -114 -115 -117 -120 0
-112 -114 -115 -119 -120 0
-112 -114 -116 -117 -119 0
-112 -114 -116 -117 -120 0
-112 -114 -116 -119 -120 0
-112 -114 -117 -119 -120 0
-112 -115 -116 -117 -119 0
-112 -115 -116 -117 -120 0
-112 -115 -116 -119 -120 0
-112 -115 -117 -119 -120 0
-112 -116 -117 -119 -120 0
-113 -114 -115 -116 -117 0
-113 -114 -115 -116 -119 0
-113 -114 -115 -116 -120 0
-113 -114 -115 -117 -119 0
-113 -114 -115 -117 -120 0
-113 -114 -115 -119 -120 0
-113 -114 -116 -117 -119 0
-113 -114 -116 -117 -120 0
-113 -114 -116 -119 -120 0
-113 -114 -117 -119 -120 0
-113 -115 -116 -117 -119 0
-113 -115 -116 -117 -120 0
-113 -115 -116 -119 -120 0
-113 -115 -117 -119 -120 0
-113 -116 -117 -119 -120 0
-114 -115 -116 -117 -119 0
-114 -115 -116 -117 -120 0
-114 -115 -116 -119 -120 0
-114 -115 -117 -119 -120 0
-114 -116 -117 -119 -120 0
-115 -116 -117 -119 -120 0
121 122 123 124 125 126 127 128 0
121 122 123 124 125 126 127 129 0
121 122 123 124 125 126 127 130 0
121 122 123 124 125 126 127 132 0
121 122 123 124 125 126 128 129 0
121 122 123 124 125 126 128 130 0
121 122 123 124 125 126 128 132 0
121 122 123 124 125 126 129 130 0
121 122 123 124 125 126 129 132 0
121 122 123 124 125 126 130 132 0
121 122 123 124 125 127 128 129 0
121 122 123 124 125 127 128 130 0
121 122 123 124 125 127 128 132 0
121 122 123 124 125 127 129 130 0
121 122 123 124 125 127 129 132 0
121 122 123 124 125 127 130 132 0
121 122 123 124 125 128 129 130 0
121 122 123 124 125 128 129 132 0
121 122 123 124 125 128 130 132 0
121 122 123 124 125 129 130 132 0
121 122 123 124 126 127 128 129 0
121 122 123 124 126 127 128 130 0
121 122 123 124 126 127 128 132 0
121 122 123 124 126 127 129 130 0
121 122 123 124 126 127 129 132 0
121 122 123 124 126 127 130 132 0
121 122 123 124 126 128 129 130 0
121 122 123 124 126 128 129 132 0
121 122 123 124 126 128 130 132 0
121 122 123 124 126 129 130 132 0
121 122 123 124 127 128 129 130 0
121 122 123 124 127 128 129 132 0
121 122 123 124 127 128 130 132 0
121 122 123 124 127 129 130 132 0
121 122 123 124 128 129 130 132 0
121 122 123 125 126 127 128 129 0
121 122 123 125 126 127 128 130 0
121 122 123 125 126 127 128 132 0
121 122 123 125 126 127 129 130 0
121 122 123 125 126 127 129 132 0
121 122 123 125 126 127 130 132 0
121 122 123 125 126 128 129 130 0
121 122 123 125 126 128 129 132 0
121 122 123 125 126 128 130 132 0
121 122 123 125 126 129 130 132 0
121 122 123 125 127 128 129 130 0
121 122 123 125 127 128 129 132 0
121 122 123 125 127 128 130 132 0
121 122 123 125 127 129 130 132 0
121 122 123 125 128 129 130 132 0
121 122 123 126 127 128 129 130 0
121 122 123 126 127 128 129 132 0
121 122 123 126 127 128 130 132 0
121 122 123 126 127 129 130 132 0
121 122 123 126 128 129 130 132 0
121 122 123 127 128 129 130 132 0
121 122 124 125 126 127 128 129 0
121 122 124 125 126 127 128 130 0
121 122 124 125 126 127 128 132 0
121 122 124 125 126 127 129 130 0
121 122 124 125 126 127 129 132 0
121 122 124 125 126 127 130 132 0
121 122 124 125 126 128 129 130 0
121 122 124 125 126 128 129 132 0
121 122 124 125 126 128 130 132 0
121 122 124 125 126 129 130 132 0
121 122 124 125 127 128 129 130 0
121 122 124 125 127 128 129 132 0
121 122 124 125 127 128 130 132 0
121 122 124 125 127 129 130 132 0
121 122 124 125 128 129 130 132 0
121 122 124 126 127 128 129 130 0
121 122 124 126 127 128 129 132 0
121 122 124 126 127 128 130 132 0
121 122 124 126 127 129 130 132 0
121 122 124 126 128 129 130 132 0
121 122 124 127 128 129 130 132 0
121 122 125 126 127 128 129 130 0
121 122 125 126 127 128 129 132 0
121 122 125 126 127 128 130 132 0
121 122 125 126 127 129 130 132 0
121 122 125 126 128 129 130 132 0
121 122 125 127 128 129 130 132 0
121 122 126 127 128 129 130 132 0
121 123 124 125 126 127 128 129 0
121 123 124 125 126 127 128 130 0
121 123 124 125 126 127 128 132 0
121 123 124 125 126 127 129 130 0
121 123 124 125 126 127 129 132 0
121 123 124 125 126 127 130 132 0
121 123 124 125 126 128 129 130 0
121 123 124 125 126 128 129 132 0
121 123 124 125 126 128 130 132 0
121 123 124 125 126 129 130 132 0
121 123 124 125 127 128 129 130 0
121 123 124 125 127 128 129 132 0
121 123 124 125 127 128 130 132 0
121 123 124 125 127 129 130 132 0
121 123 124 125 128 129 130 132 0
121 123 124 126 127 128 129 130 0
121 123 124 126 127 128 129 132 0
121 123 124 126 127 128 130 132 0
121 123 124 126 127 129 130 132 0
121 123 124 126 128 129 130 132 0
121 123 124 127 128 129 130 132 0
121 123 125 126 127 128 129 130 0
121 123 125 126 127 128 129 132 0
121 123 125 126 127 128 130 132 0
121 123 125 126 127 129 130 132 0
121 123 125 126 128 129 130 132 0
121 123 125 127 128 129 130 132 0
121 123 126 127 128 129 130 132 0
121 124 125 126 127 128 129 130 0
121 124 125 126 127 128 129 132 0
121 124 125 126 127 128 130 132 0
121 124 125 126 127 129 130 132 0
121 124 125 126 128 129 130 132 0
121 124 125 127 128 129 130 132 0
121 124 126 127 128 129 130 132 0
121 125 126 127 128 129 130 132 0
122 123 124 125 126 127 128 129 0
122 123 124 125 126 127 128 130 0
122 123 124 125 126 127 128 132 0
122 123 124 125 126 127 129 130 0
122 123 124 125 126 127 129 132 0
122 123 124 125 126 127 130 132 0
122 123 124 125 126 128 129 130 0
122 123 124 125 126 128 129 132 0
122 123 124 125 126 128 130 132 0
122 123 124 125 126 129 130 132 0
122 123 124 125 127 128 129 130 0
122 123 124 125 127 128 129 132 0
122 123 124 125 127 128 130 132 0
122 123 124 125 127 129 130 132 0
122 123 124 125 128 129 130 132 0
122 123 124 126 127 128 129 130 0
122 123 124 126 127 128 129 132 0
122 123 124 126 127 128 130 132 0
122 123 124 126 127 129 130 132 0
122 123 124 126 128 129 130 132 0
122 123 124 127 128 129 130 132 0
122 123 125 126 127 128 129 130 0
122 123 125 126 127 128 129 132 0
122 123 125 126 127 128 130 132 0
122 123 125 126 127 129 130 132 0
122 123 125 126 128 129 130 132 0
122 123 125 127 128 129 130 132 0
122 123 126 127 128 129 130 132 0
122 124 125 126 127 128 129 130 0
122 124 125 126 127 128 129 132 0
122 124 125 126 127 128 130 132 0
122 124 125 126 127 129 130 132 0
122 124 125 126 128 129 130 132 0
122 124 125 127 128 129 130 132 0
122 124 126 127 128 129 130 132 0
122 125 126 127 128 129 130 132 0
123 124 125 126 127 128 129 130 0
123 124 125 126 127 128 129 132 0
123 124 125 126 127 128 130 132 0
123 124 125 126 127 129 130 132 0
123 124 125 126 128 129 130 132 0
123 124 125 127 128 129 130 132 0
123 124 126 127 128 129 130 132 0
123 125 126 127 128 129 130 132 0
124 125 126 127 128 129 130 132 0
-121 -122 -123 -124 -125 0
-121 -122 -123 -124 -126 0
-121 -122 -123 -124 -127 0
-121 -122 -123 -124 -128 0
-121 -122 -123 -124 -129 0
-121 -122 -123 -124 -130 0
-121 -122 -123 -124 -132 0
-121 -122 -123 -125 -126 0
-121 -122 -123 -125 -127 0
-121 -122 -123 -125 -128 0
-121 -122 -123 -125 -129 0
-121 -122 -123 -125 -130 0
-121 -122 -123 -125 -132 0
-121 -122 -123 -126 -127 0
-121 -122 -123 -126 -128 0
-121 -122 -123 -126 -129 0
-121 -122 -123 -126 -130 0
-121 -122 -123 -126 -132 0
-121 -122 -123 -127 -128 0
-121 -122 -123 -127 -129 0
-121 -122 -123 -127 -130 0
-121 -122 -123 -127 -132 0
-121 -122 -123 -128 -129 0
-121 -122 -123 -128 -130 0
-121 -122 -123 -128 -132 0
-121 -122 -123 -129 -130 0
-121 -122 -123 -129 -132 0
-121 -122 -123 -130 -132 0
-121 -122 -124 -125 -126 0
-121 -122 -124 -125 -127 0
-121 -122 -124 -125 -128 0
-121 -122 -124 -125 -129 0
-121 -122 -124 -125 -130 0
-121 -122 -124 -125 -132 0
-121 -122 -124 -126 -127 0
-121 -122 -124 -126 -128 0
-121 -122 -124 -126 -129 0
-121 -122 -124 -126 -130 0
-121 -122 -124 -126 -132 0
-121 -122 -124 -127 -128 0
-121 -122 -124 -127 -129 0
-121 -122 -124 -127 -130 0
-121 -122 -124 -127 -132 0
-121 -122 -124 -128 -129 0
-121 -122 -124 -128 -130 0
-121 -122 -124 -128 -132 0
-121 -122 -124 -129 -130 0
-121 -122 -124 -129 -132 0
-121 -122 -124 -130 -132 0
-121 -122 -125 -126 -127 0
-121 -122 -125 -126 -128 0
-121 -122 -125 -126 -129 0
-121 -122 -125 -126 -130 0
-121 -122 -125 -126 -132 0
-121 -122 -125 -127 -128 0
-121 -122 -125 -127 -129 0
-121 -122 -125 -127 -130 0
-121 -122 -125 -127 -132 0
-121 -122 -125 -128 -129 0
-121 -122 -125 -128 -130 0
-121 -122 -125 -128 -132 0
-121 -122 -125 -129 -130 0
-121 -122 -125 -129 -132 0
-121 -122 -125 -130 -132 0
-121 -122 -126 -127 -128 0
-121 -122 -126 -127 -129 0
-121 -122 -126 -127 -130 0
-121 -122 -126 -127 -132 0
-121 -122 -126 -128 -129 0
-121 -122 -126 -128 -130 0
-121 -122 -126 -128 -132 0
-121 -122 -126 -129 -130 0
-121 -122 -126 -129 -132 0
-121 -122 -126 -130 -132 0
-121 -122 -127 -128 -129 0
-121 -122 -127 -128 -130 0
-121 -122 -127 -128 -132 0
-121 -122 -127 -129 -130 0
-121 -122 -127 -129 -132 0
-121 -122 -127 -130 -132 0
-121 -122 -128 -129 -130 0
-121 -122 -128 -129 -132 0
-121 -122 -128 -130 -132 0
-121 -122 -129 -130 -132 0
-121 -123 -124 -125 -126 0
-121 -123 -124 -125 -127 0
-121 -123 -124 -125 -128 0
-121 -123 -124 -125 -129 0
-121 -123 -124 -125 -130 0
-121 -123 -124 -125 -132 0
-121 -123 -124 -126 -127 0
-121 -123 -124 -126 -128 0
-121 -123 -124 -126 -129 0
-121 -123 -124 -126 -130 0
-121 -123 -124 -126 -132 0
-121 -123 -124 -127 -128 0
-121 -123 -124 -127 -129 0
-121 -123 -124 -127 -130 0
-121 -123 -124 -127 -132 0
-121 -123 -124 -128 -129 0
-121 -123 -124 -128 -130 0
-121 -123 -124 -128 -132 0
-121 -123 -124 -129 -130 0
-121 -123 -124 -129 -132 0
-121 -123 -124 -130 -132 0
-121 -123 -125 -126 -127 0
-121 -123 -125 -126 -128 0
-121 -123 -125 -126 -129 0
-121 -123 -125 -126 -130 0
-121 -123 -125 -126 -132 0
-121 -123 -125 -127 -128 0
-121 -123 -125 -127 -129 0
-121 -123 -125 -127 -130 0
-121 -123 -125 -127 -132 0
-121 -123 -125 -128 -129 0
-121 -123 -125 -128 -130 0
-121 -123 -125 -128 -132 0
-121 -123 -125 -129 -130 0
-121 -123 -125 -129 -132 0
-121 -123 -125 -130 -132 0
-121 -123 -126 -127 -128 0
-121 -123 -126 -127 -129 0
-121 -123 -126 -127 -130 0
-121 -123 -126 -127 -132 0
-121 -123 -126 -128 -129 0
-121 -123 -126 -128 -130 0
-121 -123 -126 -128 -132 0
-121 -123 -126 -129 -130 0
-121 -123 -126 -129 -132 0
-121 -123 -126 -130 -132 0
-121 -123 -127 -128 -129 0
-121 -123 -127 -128 -130 0
-121 -123 -127 -128 -132 0
-121 -123 -127 -129 -130 0
-121 -123 -127 -129 -132 0
-121 -123 -127 -130 -132 0
-121 -123 -128 -129 -130 0
-121 -123 -128 -129 -132 0
-121 -123 -128 -130 -132 0
-121 -123 -129 -130 -132 0
-121 -124 -125 -126 -127 0
-121 -124 -125 -126 -128 0
-121 -124 -125 -126 -129 0
-121 -124 -125 -126 -130 0
-121 -124 -125 -126 -132 0
-121 -124 -125 -127 -128 0
-121 -124 -125 -127 -129 0
-121 -124 -125 -127 -130 0
-121 -124 -125 -127 -132 0
-121 -124 -125 -128 -129 0
-121 -124 -125 -128 -130 0
-121 -124 -125 -128 -132 0
-121 -124 -125 -129 -130 0
-121 -124 -125 -129 -132 0
-121 -124 -125 -130 -132 0
-121 -124 -126 -127 -128 0
-121 -124 -126 -127 -129 0
-121 -124 -126 -127 -130 0
-121 -124 -126 -127 -132 0
-121 -124 -126 -128 -129 0
-121 -124 -126 -128 -130 0
-121 -124 -126 -128 -132 0
-121 -124 -126 -129 -130 0
-121 -124 -126 -129 -132 0
-121 -124 -126 -130 -132 0
-121 -124 -127 -128 -129 0
-121 -124 -127 -128 -130 0
-121 -124 -127 -128 -132 0
-121 -124 -127 -129 -130 0
-121 -124 -127 -129 -132 0
-121 -124 -127 -130 -132 0
-121 -124 -128 -129 -130 0
-121 -124 -128 -129 -132 0
-121 -124 -128 -130 -132 0
-121 -124 -129 -130 -132 0
-121 -125 -126 -127 -128 0
-121 -125 -126 -127 -129 0
-121 -125 -126 -127 -130 0
-121 -125 -126 -127 -132 0
-121 -125 -126 -128 -129 0
-121 -125 -126 -128 -130 0
-121 -125 -126 -128 -132 0
-121 -125 -126 -129 -130 0
-121 -125 -126 -129 -132 0
-121 -125 -126 -130 -132 0
-121 -125 -127 -128 -129 0
-121 -125 -127 -128 -130 0
-121 -125 -127 -128 -132 0
-121 -125 -127 -129 -130 0
-121 -125 -127 -129 -132 0
-121 -125 -127 -130 -132 0
-121 -125 -128 -129 -130 0
-121 -125 -128 -129 -132 0
-121 -125 -128 -130 -132 0
-121 -125 -129 -130 -132 0
-121 -126 -127 -128 -129 0
-121 -126 -127 -128 -130 0
-121 -126 -127 -128 -132 0
-121 -126 -127 -129 -130 0
-121 -126 -127 -129 -132 0
-121 -126 -127 -130 -132 0
-121 -126 -128 -129 -130 0
-121 -126 -128 -129 -132 0
-121 -126 -128 -130 -132 0
-121 -126 -129 -130 -132 0
-121 -127 -128 -129 -130 0
-121 -127 -128 -129 -132 0
-121 -127 -128 -130 -132 0
-121 -127 -129 -130 -132 0
-121 -128 -129 -130 -132 0
-122 -123 -124 -125 -126 0
-122 -123 -124 -125 -127 0
-122 -123 -124 -125 -128 0
-122 -123 -124 -125 -129 0
-122 -123 -124 -125 -130 0
-122 -123 -124 -125 -132 0
-122 -123 -124 -126 -127 0
-122 -123 -124 -126 -128 0
-122 -123 -124 -126 -129 0
-122 -123 -124 -126 -130 0
-122 -123 -124 -126 -132 0
-122 -123 -124 -127 -128 0
-122 -123 -124 -127 -129 0
-122 -123 -124 -127 -130 0
-122 -123 -124 -127 -132 0
-122 -123 -124 -128 -129 0
-122 -123 -124 -128 -130 0
-122 -123 -124 -128 -132 0
-122 -123 -124 -129 -130 0
-122 -123 -124 -129 -132 0
-122 -123 -124 -130 -132 0
-122 -123 -125 -126 -127 0
-122 -123 -125 -126 -128 0
-122 -123 -125 -126 -129 0
-122 -123 -125 -126 -130 0
-122 -123 -125 -126 -132 0
-122 -123 -125 -127 -128 0
-122 -123 -125 -127 -129 0
-122 -123 -125 -127 -130 0
-122 -123 -125 -127 -132 0
-122 -123 -125 -128 -129 0
-122 -123 -125 -128 -130 0
-122 -123 -125 -128 -132 0
-122 -123 -125 -129 -130 0
-122 -123 -125 -129 -132 0
-122 -123 -125 -130 -132 0
-122 -123 -126 -127 -128 0
-122 -123 -126 -127 -129 0
-122 -123 -126 -127 -130 0
-122 -123 -126 -127 -132 0
-122 -123 -126 -128 -129 0
-122 -123 -126 -128 -130 0
-122 -123 -126 -128 -132 0
-122 -123 -126 -129 -130 0
-122 -123 -126 -129 -132 0
-122 -123 -126 -130 -132 0
-122 -123 -127 -128 -129 0
-122 -123 -127 -128 -130 0
-122 -123 -127 -128 -132 0
-122 -123 -127 -129 -130 0
-122 -123 -127 -129 -132 0
-122 -123 -127 -130 -132 0
-122 -123 -128 -129 -130 0
-122 -123 -128 -129 -132 0
-122 -123 -128 -130 -132 0
-122 -123 -129 -130 -132 0
-122 -124 -125 -126 -127 0
-122 -124 -125 -126 -128 0
-122 -124 -125 -126 -129 0
-122 -124 -125 -126 -130 0
-122 -124 -125 -126 -132 0
-122 -124 -125 -127 -128 0
-122 -124 -125 -127 -129 0
-122 -124 -125 -127 -130 0
-122 -124 -125 -127 -132 0
-122 -124 -125 -128 -129 0
-122 -124 -125 -128 -130 0
-122 -124 -125 -128 -132 0
-122 -124 -125 -129 -130 0
-122 -124 -125 -129 -132 0
-122 -124 -125 -130 -132 0
-122 -124 -126 -127 -128 0
-122 -124 -126 -127 -129 0
-122 -124 -126 -127 -130 0
-122 -124 -126 -127 -132 0
-122 -124 -126 -128 -129 0
-122 -124 -126 -128 -130 0
-122 -124 -126 -128 -132 0
-122 -124 -126 -129 -130 0
-122 -124 -126 -129 -132 0
-122 -124 -126 -130 -132 0
-122 -124 -127 -128 -129 0
-122 -124 -127 -128 -130 0
-122 -124 -127 -128 -132 0
-122 -124 -127 -129 -130 0
-122 -124 -127 -129 -132 0
-122 -124 -127 -130 -132 0
-122 -124 -128 -129 -130 0
-122 -124 -128 -129 -132 0
-122 -124 -128 -130 -132 0
-122 -124 -129 -130 -132 0
-122 -125 -126 -127 -128 0
-122 -125 -126 -127 -129 0
-122 -125 -126 -127 -130 0
-122 -125 -126 -127 -132 0
-122 -125 -126 -128 -129 0
-122 -125 -126 -128 -130 0
-122 -125 -126 -128 -132 0
-122 -125 -126 -129 -130 0
-122 -125 -126 -129 -132 0
-122 -125 -126 -130 -132 0
-122 -125 -127 -128 -129 0
-122 -125 -127 -128 -130 0
-122 -125 -127 -128 -132 0
-122 -125 -127 -129 -130 0
-122 -125 -127 -129 -132 0
-122 -125 -127 -130 -132 0
-122 -125 -128 -129 -130 0
-122 -125 -128 -129 -132 0
-122 -125 -128 -130 -132 0
-122 -125 -129 -130 -132 0
-122 -126 -127 -128 -129 0
-122 -126 -127 -128 -130 0
-122 -126 -127 -128 -132 0
-122 -126 -127 -129 -130 0
-122 -126 -127 -129 -132 0
-122 -126 -127 -130 -132 0
-122 -126 -128 -129 -130 0
-122 -126 -128 -129 -132 0
-122 -126 -128 -130 -132 0
-122 -126 -129 -130 -132 0
-122 -127 -128 -129 -130 0
-122 -127 -128 -129 -132 0
-122 -127 -128 -130 -132 0
-122 -127 -129 -130 -132 0
-122 -128 -129 -130 -132 0
-123 -124 -125 -126 -127 0
-123 -124 -125 -126 -128 0
-123 -124 -125 -126 -129 0
-123 -124 -125 -126 -130 0
-123 -124 -125 -126 -132 0
-123 -124 -125 -127 -128 0
-123 -124 -125 -127 -129 0
-123 -124 -125 -127 -130 0
-123 -124 -125 -127 -132 0
-123 -124 -125 -128 -129 0
-123 -124 -125 -128 -130 0
-123 -124 -125 -128 -132 0
-123 -124 -125 -129 -130 0
-123 -124 -125 -129 -132 0
-123 -124 -125 -130 -132 0
-123 -124 -126 -127 -128 0
-123 -124 -126 -127 -129 0
-123 -124 -126 -127 -130 0
-123 -124 -126 -127 -132 0
-123 -124 -126 -128 -129 0
-123 -124 -126 -128 -130 0
-123 -124 -126 -128 -132 0
-123 -124 -126 -129 -130 0
-123 -124 -126 -129 -132 0
-123 -124 -126 -130 -132 0
-123 -124 -127 -128 -129 0
-123 -124 -127 -128 -130 0
-123 -124 -127 -128 -132 0
-123 -124 -127 -129 -130 0
-123 -124 -127 -129 -132 0
-123 -124 -127 -130 -132 0
-123 -124 -128 -129 -130 0
-123 -124 -128 -129 -132 0
-123 -124 -128 -130 -132 0
-123 -124 -129 -130 -132 0
-123 -125 -126 -127 -128 0
-123 -125 -126 -127 -129 0
-123 -125 -126 -127 -130 0
-123 -125 -126 -127 -132 0
-123 -125 -126 -128 -129 0
-123 -125 -126 -128 -130 0
-123 -125 -126 -128 -132 0
-123 -125 -126 -129 -130 0
-123 -125 -126 -129 -132 0
-123 -125 -126 -130 -132 0
-123 -125 -127 -128 -129 0
-123 -125 -127 -128 -130 0
-123 -125 -127 -128 -132 0
-123 -125 -127 -129 -130 0
-123 -125 -127 -129 -132 0
-123 -125 -127 -130 -132 0
-123 -125 -128 -129 -130 0
-123 -125 -128 -129 -132 0
-123 -125 -128 -130 -132 0
-123 -125 -129 -130 -132 0
-123 -126 -127 -128 -129 0
-123 -126 -127 -128 -130 0
-123 -126 -127 -128 -132 0
-123 -126 -127 -129 -130 0
-123 -126 -127 -129 -132 0
-123 -126 -127 -130 -132 0
-123 -126 -128 -129 -130 0
-123 -126 -128 -129 -132 0
-123 -126 -128 -130 -132 0
-123 -126 -129 -130 -132 0
-123 -127 -128 -129 -130 0
-123 -127 -128 -129 -132 0
-123 -127 -128 -130 -132 0
-123 -127 -129 -130 -132 0
-123 -128 -129 -130 -132 0
-124 -125 -126 -127 -128 0
-124 -125 -126 -127 -129 0
-124 -125 -126 -127 -130 0
-124 -125 -126 -127 -132 0
-124 -125 -126 -128 -129 0
-124 -125 -126 -128 -130 0
-124 -125 -126 -128 -132 0
-124 -125 -126 -129 -130 0
-124 -125 -126 -129 -132 0
-124 -125 -126 -130 -132 0
-124 -125 -127 -128 -129 0
-124 -125 -127 -128 -130 0
-124 -125 -127 -128 -132 0
-124 -125 -127 -129 -130 0
-124 -125 -127 -129 -132 0
-124 -125 -127 -130 -132 0
-124 -125 -128 -129 -130 0
-124 -125 -128 -129 -132 0
-124 -125 -128 -130 -132 0
-124 -125 -129 -130 -132 0
-124 -126 -127 -128 -129 0
-124 -126 -127 -128 -130 0
-124 -126 -127 -128 -132 0
-124 -126 -127 -129 -130 0
-124 -126 -127 -129 -132 0
-124 -126 -127 -130 -132 0
-124 -126 -128 -129 -130 0
-124 -126 -128 -129 -132 0
-124 -126 -128 -130 -132 0
-124 -126 -129 -130 -132 0
-124 -127 -128 -129 -130 0
-124 -127 -128 -129 -132 0
-124 -127 -128 -130 -132 0
-124 -127 -129 -130 -132 0
-124 -128 -129 -130 -132 0
-125 -126 -127 -128 -129 0
-125 -126 -127 -128 -130 0
-125 -126 -127 -128 -132 0
-125 -126 -127 -129 -130 0
-125 -126 -127 -129 -132 0
-125 -126 -127 -130 -132 0
-125 -126 -128 -129 -130 0
-125 -126 -128 -129 -132 0
-125 -126 -128 -130 -132 0
-125 -126 -129 -130 -132 0
-125 -127 -128 -129 -130 0
-125 -127 -128 -129 -132 0
-125 -127 -128 -130 -132 0
-125 -127 -129 -130 -132 0
-125 -128 -129 -130 -132 0
-126 -127 -128 -129 -130 0
-126 -127 -128 -129 -132 0
-126 -127 -128 -130 -132 0
-126 -127 -129 -130 -132 0
-126 -128 -129 -130 -132 0
-127 -128 -129 -130 -132 0
133 134 135 136 137 138 139 140 0
133 134 135 136 137 138 139 141 0
133 134 135 136 137 138 139 142 0
133 134 135 136 137 138 139 143 0
133 134 135 136 137 138 140 141 0
133 134 135 136 137 138 140 142 0
133 134 135 136 137 138 140 143 0
133 134 135 136 137 138 141 142 0
133 134 135 136 137 138 141 143 0
133 134 135 136 137 138 142 143 0
133 134 135 136 137 139 140 141 0
133 134 135 136 137 139 140 142 0
133 134 135 136 137 139 140 143 0
133 134 135 136 137 139 141 142 0
133 134 135 136 137 139 141 143 0
133 134 135 136 137 139 142 143 0
133 134 135 136 137 140 141 142 0
133 134 135 136 137 140 141 143 0
133 134 135 136 137 140 142 143 0
133 134 135 136 137 141 142 143 0
133 134 135 136 138 139 140 141 0
133 134 135 136 138 139 140 142 0
133 134 135 136 138 139 140 143 0
133 134 135 136 138 139 141 142 0
133 134 135 136 138 139 141 143 0
133 134 135 136 138 139 142 143 0
133 134 135 136 138 140 141 142 0
133 134 135 136 138 140 141 143 0
133 134 135 136 138 140 142 143 0
133 134 135 136 138 141 142 143 0
133 134 135 136 139 140 141 142 0
133 134 135 136 139 140 141 143 0
133 134 135 136 139 140 142 143 0
133 134 135 136 139 141 142 143 0
133 134 135 136 140 141 142 143 0
133 134 135 137 138 139 140 141 0
133 134 135 137 138 139 140 142 0
133 134 135 137 138 139 140 143 0
133 134 135 137 138 139 141 142 0
133 134 135 137 138 139 141 143 0
133 134 135 137 138 139 142 143 0
133 134 135 137 138 140 141 142 0
133 134 135 137 138 140 141 143 0
133 134 135 137 138 140 142 143 0
133 134 135 137 138 141 142 143 0
133 134 135 137 139 140 141 142 0
133 134 135 137 139 140 141 143 0
133 134 135 137 139 140 142 143 0
133 134 135 137 139 141 142 143 0
133 134 135 137 140 141 142 143 0
133 134 135 138 139 140 141 142 0
133 134 135 138 139 140 141 143 0
133 134 135 138 139 140 142 143 0
133 134 135 138 139 141 142 143 0
133 134 135 138 140 141 142 143 0
133 134 135 139 140 141 142 143 0
133 134 136 137 138 139 140 141 0
133 134 136 137 138 139 140 142 0
133 134 136 137 138 139 140 143 0
133 134 136 137 138 139 141 142 0
133 134 136 137 138 139 141 143 0
133 134 136 137 138 139 142 143 0
133 134 136 137 138 140 141 142 0
133 134 136 137 138 140 141 143 0
133 134 136 137 138 140 142 143 0
133 134 136 137 138 141 142 143 0
133 134 136 137 139 140 141 142 0
133 134 136 137 139 140 141 143 0
133 134 136 137 139 140 142 143 0
133 134 136 137 139 141 142 143 0
133 134 136 137 140 141 142 143 0
133 134 136 138 139 140 141 142 0
133 134 136 138 139 140 141 143 0
133 134 136 138 139 140 142 143 0
133 134 136 138 139 141 142 143 0
133 134 136 138 140 141 142 143 0
133 134 136 139 140 141 142 143 0
133 134 137 138 139 140 141 142 0
133 134 137 138 139 140 141 143 0
133 134 137 138 139 140 142 143 0
133 134 137 138 139 141 142 143 0
133 134 137 138 140 141 142 143 0
133 134 137 139 140 141 142 143 0
133 134 138 139 140 141 142 143 0
133 135 136 137 138 139 140 141 0
133 135 136 137 138 139 140 142 0
133 135 136 137 138 139 140 143 0
133 135 136 137 138 139 141 142 0
133 135 136 137 138 139 141 143 0
133 135 136 137 138 139 142 143 0
133 135 136 137 138 140 141 142 0
133 135 136 137 138 140 141 143 0
133 135 136 137 138 140 142 143 0
133 135 136 137 138 141 142 143 0
133 135 136 137 139 140 141 142 0
133 135 136 137 139 140 141 143 0
133 135 136 137 139 140 142 143 0
133 135 136 137 139 141 142 143 0
133 135 136 137 140 141 142 143 0
133 135 136 138 139 140 141 142 0
133 135 136 138 139 140 141 143 0
133 135 136 138 139 140 142 143 0
133 135 136 138 139 141 142 143 0
133 135 136 138 140 141 142 143 0
133 135 136 139 140 141 142 143 0
133 135 137 138 139 140 141 142 0
133 135 137 138 139 140 141 143 0
133 135 137 138 139 140 142 143 0
133 135 137 138 139 141 142 143 0
133 135 137 138 140 141 142 143 0
133 135 137 139 140 141 142 143 0
133 135 138 139 140 141 142 143 0
133 136 137 138 139 140 141 142 0
133 136 137 138 139 140 141 143 0
133 136 137 138 139 140 142 143 0
133 136 137 138 139 141 142 143 0
133 136 137 138 140 141 142 143 0
133 136 137 139 140 141 142 143 0
133 136 138 139 140 141 142 143 0
133 137 138 139 140 141 142 143 0
134 135 136 137 138 139 140 141 0
134 135 136 137 138 139 140 142 0
134 135 136 137 138 139 140 143 0
134 135 136 137 138 139 141 142 0
134 135 136 137 138 139 141 143 0
134 135 136 137 138 139 142 143 0
134 135 136 137 138 140 141 142 0
134 135 136 137 138 140 141 143 0
134 135 136 137 138 140 142 143 0
134 135 136 137 138 141 142 143 0
134 135 136 137 139 140 141 142 0
134 135 136 137 139 140 141 143 0
134 135 136 137 139 140 142 143 0
134 135 136 137 139 141 142 143 0
134 135 136 137 140 141 142 143 0
134 135 136 138 139 140 141 142 0
134 135 136 138 139 140 141 143 0
134 135 136 138 139 140 142 143 0
134 135 136 138 139 141 142 143 0
134 135 136 138 140 141 142 143 0
134 135 136 139 140 141 142 143 0
134 135 137 138 139 140 141 142 0
134 135 137 138 139 140 141 143 0
134 135 137 138 139 140 142 143 0
134 135 137 138 139 141 142 143 0
134 135 137 138 140 141 142 143 0
134 135 137 139 140 141 142 143 0
134 135 138 139 140 141 142 143 0
134 136 137 138 139 140 141 142 0
134 136 137 138 139 140 141 143 0
134 136 137 138 139 140 142 143 0
134 136 137 138 139 141 142 143 0
134 136 137 138 140 141 142 143 0
134 136 137 139 140 141 142 143 0
134 136 138 139 140 141 142 143 0
134 137 138 139 140 141 142 143 0
135 136 137 138 139 140 141 142 0
135 136 137 138 139 140 141 143 0
135 136 137 138 139 140 142 143 0
135 136 137 138 139 141 142 143 0
135 136 137 138 140 141 142 143 0
135 136 137 139 140 141 142 143 0
135 136 138 139 140 141 142 143 0
135 137 138 139 140 141 142 143 0
136 137 138 139 140 141 142 143 0
-133 -134 -135 -136 -137 0
-133 -134 -135 -136 -138 0
-133 -134 -135 -136 -139 0
-133 -134 -135 -136 -140 0
-133 -134 -135 -136 -141 0
-133 -134 -135 -136 -142 0
-133 -134 -135 -136 -143 0
-133 -134 -135 -137 -138 0
-133 -134 -135 -137 -139 0
-133 -134 -135 -137 -140 0
-133 -134 -135 -137 -141 0
-133 -134 -135 -137 -142 0
-133 -134 -135 -137 -143 0
-133 -134 -135 -138 -139 0
-133 -134 -135 -138 -140 0
-133 -134 -135 -138 -141 0
-133 -134 -135 -138 -142 0
-133 -134 -135 -138 -143 0
-133 -134 -135 -139 -140 0
-133 -134 -135 -139 -141 0
-133 -134 -135 -139 -142 0
-133 -134 -135 -139 -143 0
-133 -134 -135 -140 -141 0
-133 -134 -135 -140 -142 0
-133 -134 -135 -140 -143 0
-133 -134 -135 -141 -142 0
-133 -134 -135 -141 -143 0
-133 -134 -135 -142 -143 0
-133 -134 -136 -137 -138 0
-133 -134 -136 -137 -139 0
-133 -134 -136 -137 -140 0
-133 -134 -136 -137 -141 0
-133 -134 -136 -137 -142 0
-133 -134 -136 -137 -143 0
-133 -134 -136 -138 -139 0
-133 -134 -136 -138 -140 0
-133 -134 -136 -138 -141 0
-133 -134 -136 -138 -142 0
-133 -134 -136 -138 -143 0
-133 -134 -136 -139 -140 0
-133 -134 -136 -139 -141 0
-133 -134 -136 -139 -142 0
-133 -134 -136 -139 -143 0
-133 -134 -136 -140 -141 0
-133 -134 -136 -140 -142 0
-133 -134 -136 -140 -143 0
-133 -134 -136 -141 -142 0
-133 -134 -136 -141 -143 0
-133 -134 -136 -142 -143 0
-133 -134 -137 -138 -139 0
-133 -134 -137 -138 -140 0
-133 -134 -137 -138 -141 0
-133 -134 -137 -138 -142 0
-133 -134 -137 -138 -143 0
-133 -134 -137 -139 -140 0
-133 -134 -137 -139 -141 0
-133 -134 -137 -139 -142 0
-133 -134 -137 -139 -143 0
-133 -134 -137 -140 -141 0
-133 -134 -137 -140 -142 0
-133 -134 -137 -140 -143 0
-133 -134 -137 -141 -142 0
-133 -134 -137 -141 -143 0
-133 -134 -137 -142 -143 0
-133 -134 -138 -139 -140 0
-133 -134 -138 -139 -141 0
-133 -134 -138 -139 -142 0
-133 -134 -138 -139 -143 0
-133 -134 -138 -140 -141 0
-133 -134 -138 -140 -142 0
-133 -134 -138 -140 -143 0
-133 -134 -138 -141 -142 0
-133 -134 -138 -141 -143 0
-133 -134 -138 -142 -143 0
-133 -134 -139 -140 -141 0
-133 -134 -139 -140 -142 0
-133 -134 -139 -140 -143 0
-133 -134 -139 -141 -142 0
-133 -134 -139 -141 -143 0
-133 -134 -139 -142 -143 0
-133 -134 -140 -141 -142 0
-133 -134 -140 -141 -143 0
-133 -134 -140 -142 -143 0
-133 -134 -141 -142 -143 0
-133 -135 -136 -137 -138 0
-133 -135 -136 -137 -139 0
-133 -135 -136 -137 -140 0
-133 -135 -136 -137 -141 0
-133 -135 -136 -137 -142 0
-133 -135 -136 -137 -143 0
-133 -135 -136 -138 -139 0
-133 -135 -136 -138 -140 0
-133 -135 -136 -138 -141 0
-133 -135 -136 -138 -142 0
-133 -135 -136 -138 -143 0
-133 -135 -136 -139 -140 0
-133 -135 -136 -139 -141 0
-133 -135 -136 -139 -142 0
-133 -135 -136 -139 -143 0
-133 -135 -136 -140 -141 0
-133 -135 -136 -140 -142 0
-133 -135 -136 -140 -143 0
-133 -135 -136 -141 -142 0
-133 -135 -136 -141 -143 0
-133 -135 -136 -142 -143 0
-133 -135 -137 -138 -139 0
-133 -135 -137 -138 -140 0
-133 -135 -137 -138 -141 0
-133 -135 -137 -138 -142 0
-133 -135 -137 -138 -143 0
-133 -135 -137 -139 -140 0
-133 -135 -137 -139 -141 0
-133 -135 -137 -139 -142 0
-133 -135 -137 -139 -143 0
-133 -135 -137 -140 -141 0
-133 -135 -137 -140 -142 0
-133 -135 -137 -140 -143 0
-133 -135 -137 -141 -142 0
-133 -135 -137 -141 -143 0
-133 -135 -137 -142 -143 0
-133 -135 -138 -139 -140 0
-133 -135 -138 -139 -141 0
-133 -135 -138 -139 -142 0
-133 -135 -138 -139 -143 0
-133 -135 -138 -140 -141 0
-133 -135 -138 -140 -142 0
-133 -135 -138 -140 -143 0
-133 -135 -138 -141 -142 0
-133 -135 -138 -141 -143 0
-133 -135 -138 -142 -143 0
-133 -135 -139 -140 -141 0
-133 -135 -139 -140 -142 0
-133 -135 -139 -140 -143 0
-133 -135 -139 -141 -142 0
-133 -135 -139 -141 -143 0
-133 -135 -139 -142 -143 0
-133 -135 -140 -141 -142 0
-133 -135 -140 -141 -143 0
-133 -135 -140 -142 -143 0
-133 -135 -141 -142 -143 0
-133 -136 -137 -138 -139 0
-133 -136 -137 -138 -140 0
-133 -136 -137 -138 -141 0
-133 -136 -137 -138 -142 0
-133 -136 -137 -138 -143 0
-133 -136 -137 -139 -140 0
-133 -136 -137 -139 -141 0
-133 -136 -137 -139 -142 0
-133 -136 -137 -139 -143 0
-133 -136 -137 -140 -141 0
-133 -136 -137 -140 -142 0
-133 -136 -137 -140 -143 0
-133 -136 -137 -141 -142 0
-133 -136 -137 -141 -143 0
-133 -136 -137 -142 -143 0
-133 -136 -138 -139 -140 0
-133 -136 -138 -139 -141 0
-133 -136 -138 -139 -142 0
-133 -136 -138 -139 -143 0
-133 -136 -138 -140 -141 0
-133 -136 -138 -140 -142 0
-133 -136 -138 -140 -143 0
-133 -136 -138 -141 -142 0
-133 -136 -138 -141 -143 0
-133 -136 -138 -142 -143 0
-133 -136 -139 -140 -141 0
-133 -136 -139 -140 -142 0
-133 -136 -139 -140 -143 0
-133 -136 -139 -141 -142 0
-133 -136 -139 -141 -143 0
-133 -136 -139 -142 -143 0
-133 -136 -140 -141 -142 0
-133 -136 -140 -141 -143 0
-133 -136 -140 -142 -143 0
-133 -136 -141 -142 -143 0
-133 -137 -138 -139 -140 0
-133 -137 -138 -139 -141 0
-133 -137 -138 -139 -142 0
-133 -137 -138 -139 -143 0
-133 -137 -138 -140 -141 0
-133 -137 -138 -140 -142 0
-133 -137 -138 -140 -143 0
-133 -137 -138 -141 -142 0
-133 -137 -138 -141 -143 0
-133 -137 -138 -142 -143 0
-133 -137 -139 -140 -141 0
-133 -137 -139 -140 -142 0
-133 -137 -139 -140 -143 0
-133 -137 -139 -141 -142 0
-133 -137 -139 -141 -143 0
-133 -137 -139 -142 -143 0
-133 -137 -140 -141 -142 0
-133 -137 -140 -141 -143 0
-133 -137 -140 -142 -143 0
-133 -137 -141 -142 -143 0
-133 -138 -139 -140 -141 0
-133 -138 -139 -140 -142 0
-133 -138 -139 -140 -143 0
-133 -138 -139 -141 -142 0
-133 -138 -139 -141 -143 0
-133 -138 -139 -142 -143 0
-133 -138 -140 -141 -142 0
-133 -138 -140 -141 -143 0
-133 -138 -140 -142 -143 0
-133 -138 -141 -142 -143 0
-133 -139 -140 -141 -142 0
-133 -139 -140 -141 -143 0
-133 -139 -140 -142 -143 0
-133 -139 -141 -142 -143 0
-133 -140 -141 -142 -143 0
-134 -135 -136 -137 -138 0
-134 -135 -136 -137 -139 0
-134 -135 -136 -137 -140 0
-134 -135 -136 -137 -141 0
-134 -135 -136 -137 -142 0
-134 -135 -136 -137 -143 0
-134 -135 -136 -138 -139 0
-134 -135 -136 -138 -140 0
-134 -135 -136 -138 -141 0
-134 -135 -136 -138 -142 0
-134 -135 -136 -138 -143 0
-134 -135 -136 -139 -140 0
-134 -135 -136 -139 -141 0
-134 -135 -136 -139 -142 0
-134 -135 -136 -139 -143 0
-134 -135 -136 -140 -141 0
-134 -135 -136 -140 -142 0
-134 -135 -136 -140 -143 0
-134 -135 -136 -141 -142 0
-134 -135 -136 -141 -143 0
-134 -135 -136 -142 -143 0
-134 -135 -137 -138 -139 0
-134 -135 -137 -138 -140 0
-134 -135 -137 -138 -141 0
-134 -135 -137 -138 -142 0
-134 -135 -137 -138 -143 0
-134 -135 -137 -139 -140 0
-134 -135 -137 -139 -141 0
-134 -135 -137 -139 -142 0
-134 -135 -137 -139 -143 0
-134 -135 -137 -140 -141 0
-134 -135 -137 -140 -142 0
-134 -135 -137 -140 -143 0
-134 -135 -137 -141 -142 0
-134 -135 -137 -141 -143 0
-134 -135 -137 -142 -143 0
-134 -135 -138 -139 -140 0
-134 -135 -138 -139 -141 0
-134 -135 -138 -139 -142 0
-134 -135 -138 -139 -143 0
-134 -135 -138 -140 -141 0
-134 -135 -138 -140 -142 0
-134 -135 -138 -140 -143 0
-134 -135 -138 -141 -142 0
-134 -135 -138 -141 -143 0
-134 -135 -138 -142 -143 0
-134 -135 -139 -140 -141 0
-134 -135 -139 -140 -142 0
-134 -135 -139 -140 -143 0
-134 -135 -139 -141 -142 0
-134 -135 -139 -141 -143 0
-134 -135 -139 -142 -143 0
-134 -135 -140 -141 -142 0
-134 -135 -140 -141 -143 0
-134 -135 -140 -142 -143 0
-134 -135 -141 -142 -143 0
-134 -136 -137 -138 -139 0
-134 -136 -137 -138 -140 0
-134 -136 -137 -138 -141 0
-134 -136 -137 -138 -142 0
-134 -136 -137 -138 -143 0
-134 -136 -137 -139 -140 0
-134 -136 -137 -139 -141 0
-134 -136 -137 -139 -142 0
-134 -136 -137 -139 -143 0
-134 -136 -137 -140 -141 0
-134 -136 -137 -140 -142 0
-134 -136 -137 -140 -143 0
-134 -136 -137 -141 -142 0
-134 -136 -137 -141 -143 0
-134 -136 -137 -142 -143 0
-134 -136 -138 -139 -140 0
-134 -136 -138 -139 -141 0
-134 -136 -138 -139 -142 0
-134 -136 -138 -139 -143 0
-134 -136 -138 -140 -141 0
-134 -136 -138 -140 -142 0
-134 -136 -138 -140 -143 0
-134 -136 -138 -141 -142 0
-134 -136 -138 -141 -143 0
-134 -136 -138 -142 -143 0
-134 -136 -139 -140 -141 0
-134 -136 -139 -140 -142 0
-134 -136 -139 -140 -143 0
-134 -136 -139 -141 -142 0
-134 -136 -139 -141 -143 0
-134 -136 -139 -142 -143 0
-134 -136 -140 -141 -142 0
-134 -136 -140 -141 -143 0
-134 -136 -140 -142 -143 0
-134 -136 -141 -142 -143 0
-134 -137 -138 -139 -140 0
-134 -137 -138 -139 -141 0
-134 -137 -138 -139 -142 0
-134 -137 -138 -139 -143 0
-134 -137 -138 -140 -141 0
-134 -137 -138 -140 -142 0
-134 -137 -138 -140 -143 0
-134 -137 -138 -141 -142 0
-134 -137 -138 -141 -143 0
-134 -137 -138 -142 -143 0
-134 -137 -139 -140 -141 0
-134 -137 -139 -140 -142 0
-134 -137 -139 -140 -143 0
-134 -137 -139 -141 -142 0
-134 -137 -139 -141 -143 0
-134 -137 -139 -142 -143 0
-134 -137 -140 -141 -142 0
-134 -137 -140 -141 -143 0
-134 -137 -140 -142 -143 0
-134 -137 -141 -142 -143 0
-134 -138 -139 -140 -141 0
-134 -138 -139 -140 -142 0
-134 -138 -139 -140 -143 0
-134 -138 -139 -141 -142 0
-134 -138 -139 -141 -143 0
-134 -138 -139 -142 -143 0
-134 -138 -140 -141 -142 0
-134 -138 -140 -141 -143 0
-134 -138 -140 -142 -143 0
-134 -138 -141 -142 -143 0
-134 -139 -140 -141 -142 0
-134 -139 -140 -141 -143 0
-134 -139 -140 -142 -143 0
-134 -139 -141 -142 -143 0
-134 -140 -141 -142 -143 0
-135 -136 -137 -138 -139 0
-135 -136 -137 -138 -140 0
-135 -136 -137 -138 -141 0
-135 -136 -137 -138 -142 0
-135 -136 -137 -138 -143 0
-135 -136 -137 -139 -140 0
-135 -136 -137 -139 -141 0
-135 -136 -137 -139 -142 0
-135 -136 -137 -139 -143 0
-135 -136 -137 -140 -141 0
-135 -136 -137 -140 -142 0
-135 -136 -137 -140 -143 0
-135 -136 -137 -141 -142 0
-135 -136 -137 -141 -143 0
-135 -136 -137 -142 -143 0
-135 -136 -138 -139 -140 0
-135 -136 -138 -139 -141 0
-135 -136 -138 -139 -142 0
-135 -136 -138 -139 -143 0
-135 -136 -138 -140 -141 0
-135 -136 -138 -140 -142 0
-135 -136 -138 -140 -143 0
-135 -136 -138 -141 -142 0
-135 -136 -138 -141 -143 0
-135 -136 -138 -142 -143 0
-135 -136 -139 -140 -141 0
-135 -136 -139 -140 -142 0
-135 -136 -139 -140 -143 0
-135 -136 -139 -141 -142 0
-135 -136 -139 -141 -143 0
-135 -136 -139 -142 -143 0
-135 -136 -140 -141 -142 0
-135 -136 -140 -141 -143 0
-135 -136 -140 -142 -143 0
-135 -136 -141 -142 -143 0
-135 -137 -138 -139 -140 0
-135 -137 -138 -139 -141 0
-135 -137 -138 -139 -142 0
-135 -137 -138 -139 -143 0
-135 -137 -138 -140 -141 0
-135 -137 -138 -140 -142 0
-135 -137 -138 -140 -143 0
-135 -137 -138 -141 -142 0
-135 -137 -138 -141 -143 0
-135 -137 -138 -142 -143 0
-135 -137 -139 -140 -141 0
-135 -137 -139 -140 -142 0
-135 -137 -139 -140 -143 0
-135 -137 -139 -141 -142 0
-135 -137 -139 -141 -143 0
-135 -137 -139 -142 -143 0
-135 -137 -140 -141 -142 0
-135 -137 -140 -141 -143 0
-135 -137 -140 -142 -143 0
-135 -137 -141 -142 -143 0
-135 -138 -139 -140 -141 0
-135 -138 -139 -140 -142 0
-135 -138 -139 -140 -143 0
-135 -138 -139 -141 -142 0
-135 -138 -139 -141 -143 0
-135 -138 -139 -142 -143 0
-135 -138 -140 -141 -142 0
-135 -138 -140 -141 -143 0
-135 -138 -140 -142 -143 0
-135 -138 -141 -142 -143 0
-135 -139 -140 -141 -142 0
-135 -139 -140 -141 -143 0
-135 -139 -140 -142 -143 0
-135 -139 -141 -142 -143 0
-135 -140 -141 -142 -143 0
-136 -137 -138 -139 -140 0
-136 -137 -138 -139 -141 0
-136 -137 -138 -139 -142 0
-136 -137 -138 -139 -143 0
-136 -137 -138 -140 -141 0
-136 -137 -138 -140 -142 0
-136 -137 -138 -140 -143 0
-136 -137 -138 -141 -142 0
-136 -137 -138 -141 -143 0
-136 -137 -138 -142 -143 0
-136 -137 -139 -140 -141 0
-136 -137 -139 -140 -142 0
-136 -137 -139 -140 -143 0
-136 -137 -139 -141 -142 0
-136 -137 -139 -141 -143 0
-136 -137 -139 -142 -143 0
-136 -137 -140 -141 -142 0
-136 -137 -140 -141 -143 0
-136 -137 -140 -142 -143 0
-136 -137 -141 -142 -143 0
-136 -138 -139 -140 -141 0
-136 -138 -139 -140 -142 0
-136 -138 -139 -140 -143 0
-136 -138 -139 -141 -142 0
-136 -138 -139 -141 -143 0
-136 -138 -139 -142 -143 0
-136 -138 -140 -141 -142 0
-136 -138 -140 -141 -143 0
-136 -138 -140 -142 -143 0
-136 -138 -141 -142 -143 0
-136 -139 -140 -141 -142 0
-136 -139 -140 -141 -143 0
-136 -139 -140 -142 -143 0
-136 -139 -141 -142 -143 0
-136 -140 -141 -142 -143 0
-137 -138 -139 -140 -141 0
-137 -138 -139 -140 -142 0
-137 -138 -139 -140 -143 0
-137 -138 -139 -141 -142 0
-137 -138 -139 -141 -143 0
-137 -138 -139 -142 -143 0
-137 -138 -140 -141 -142 0
-137 -138 -140 -141 -143 0
-137 -138 -140 -142 -143 0
-137 -138 -141 -142 -143 0
-137 -139 -140 -141 -142 0
-137 -139 -140 -141 -143 0
-137 -139 -140 -142 -143 0
-137 -139 -141 -142 -143 0
-137 -140 -141 -142 -143 0
-138 -139 -140 -141 -142 0
-138 -139 -140 -141 -143 0
-138 -139 -140 -142 -143 0
-138 -139 -141 -142 -143 0
-138 -140 -141 -142 -143 0
-139 -140 -141 -142 -143 0
-13 25 0
-13 25 -145 0
13 -25 -145 0
13 25 145 0
-13 -25 145 0
-15 26 -145 0
-15 26 -147 0
15 -26 -147 0
15 26 147 0
-15 -26 147 0
145 -146 0
-146 147 0
-145 146 -147 0
-16 28 -146 0
-16 28 -149 0
16 -28 -149 0
16 28 149 0
-16 -28 149 0
146 -148 0
-148 149 0
-146 148 -149 0
-17 29 -148 0
-17 29 -151 0
17 -29 -151 0
17 29 151 0
-17 -29 151 0
148 -150 0
-150 151 0
-148 150 -151 0
-18 30 -150 0
-18 30 -153 0
18 -30 -153 0
18 30 153 0
-18 -30 153 0
150 -152 0
-152 153 0
-150 152 -153 0
-19 31 -152 0
-19 31 -155 0
19 -31 -155 0
19 31 155 0
-19 -31 155 0
152 -154 0
-154 155 0
-152 154 -155 0
-20 32 -154 0
-20 32 -157 0
20 -32 -157 0
20 32 157 0
-20 -32 157 0
154 -156 0
-156 157 0
-154 156 -157 0
-21 33 -156 0
-21 33 -159 0
21 -33 -159 0
21 33 159 0
-21 -33 159 0
156 -158 0
-158 159 0
-156 158 -159 0
-22 34 -158 0
-22 34 -161 0
22 -34 -161 0
22 34 161 0
-22 -34 161 0
158 -160 0
-160 161 0
-158 160 -161 0
-23 35 -160 0
-23 35 -163 0
23 -35 -163 0
23 35 163 0
-23 -35 163 0
160 -162 0
-162 163 0
-160 162 -163 0
-24 36 -162 0
-24 36 -165 0
24 -36 -165 0
24 36 165 0
-24 -36 165 0
162 -164 0
-164 165 0
-162 164 -165 0
-25 37 0
-25 37 -166 0
25 -37 -166 0
25 37 166 0
-25 -37 166 0
-26 38 -166 0
-26 38 -168 0
26 -38 -168 0
26 38 168 0
-26 -38 168 0
166 -167 0
-167 168 0
-166 167 -168 0
-28 39 -167 0
-28 39 -170 0
28 -39 -170 0
28 39 170 0
-28 -39 170 0
167 -169 0
-169 170 0
-167 169 -170 0
-29 41 -169 0
-29 41 -172 0
29 -41 -172 0
29 41 172 0
-29 -41 172 0
169 -171 0
-171 172 0
-169 171 -172 0
-30 42 -171 0
-30 42 -174 0
30 -42 -174 0
30 42 174 0
-30 -42 174 0
171 -173 0
-173 174 0
-171 173 -174 0
-31 43 -173 0
-31 43 -176 0
31 -43 -176 0
31 43 176 0
-31 -43 176 0
173 -175 0
-175 176 0
-173 175 -176 0
-32 44 -175 0
-32 44 -178 0
32 -44 -178 0
32 44 178 0
-32 -44 178 0
175 -177 0
-177 178 0
-175 177 -178 0
-33 45 -177 0
-33 45 -180 0
33 -45 -180 0
33 45 180 0
-33 -45 180 0
177 -179 0
-179 180 0
-177 179 -180 0
-34 46 -179 0
-34 46 -182 0
34 -46 -182 0
34 46 182 0
-34 -46 182 0
179 -181 0
-181 182 0
-179 181 -182 0
-35 47 -181 0
-35 47 -184 0
35 -47 -184 0
35 47 184 0
-35 -47 184 0
181 -183 0
-183 184 0
-181 183 -184 0
-36 48 -183 0
-36 48 -186 0
36 -48 -186 0
36 48 186 0
-36 -48 186 0
183 -185 0
-185 186 0
-183 185 -186 0
-37 49 0
-37 49 -187 0
37 -49 -187 0
37 49 187 0
-37 -49 187 0
-38 50 -187 0
-38 50 -189 0
38 -50 -189 0
38 50 189 0
-38 -50 189 0
187 -188 0
-188 189 0
-187 188 -189 0
-39 51 -188 0
-39 51 -191 0
39 -51 -191 0
39 51 191 0
-39 -51 191 0
188 -190 0
-190 191 0
-188 190 -191 0
-41 52 -190 0
-41 52 -193 0
41 -52 -193 0
41 52 193 0
-41 -52 193 0
190 -192 0
-192 193 0
-190 192 -193 0
-42 54 -192 0
-42 54 -195 0
42 -54 -195 0
42 54 195 0
-42 -54 195 0
192 -194 0
-194 195 0
-192 194 -195 0
-43 55 -194 0
-43 55 -197 0
43 -55 -197 0
43 55 197 0
-43 -55 197 0
194 -196 0
-196 197 0
-194 196 -197 0
-44 56 -196 0
-44 56 -199 0
44 -56 -199 0
44 56 199 0
-44 -56 199 0
196 -198 0
-198 199 0
-196 198 -199 0
-45 57 -198 0
-45 57 -201 0
45 -57 -201 0
45 57 201 0
-45 -57 201 0
198 -200 0
-200 201 0
-198 200 -201 0
-46 58 -200 0
-46 58 -203 0
46 -58 -203 0
46 58 203 0
-46 -58 203 0
200 -202 0
-202 203 0
-200 202 -203 0
-47 59 -202 0
-47 59 -205 0
47 -59 -205 0
47 59 205 0
-47 -59 205 0
202 -204 0
-204 205 0
-202 204 -205 0
-48 60 -204 0
-48 60 -207 0
48 -60 -207 0
48 60 207 0
-48 -60 207 0
204 -206 0
-206 207 0
-204 206 -207 0
-61 73 0
-61 73 -208 0
61 -73 -208 0
61 73 208 0
-61 -73 208 0
-62 74 -208 0
-62 74 -210 0
62 -74 -210 0
62 74 210 0
-62 -74 210 0
208 -209 0
-209 210 0
-208 209 -210 0
-63 75 -209 0
-63 75 -212 0
63 -75 -212 0
63 75 212 0
-63 -75 212 0
209 -211 0
-211 212 0
-209 211 -212 0
-64 76 -211 0
-64 76 -214 0
64 -76 -214 0
64 76 214 0
-64 -76 214 0
211 -213 0
-213 214 0
-211 213 -214 0
-65 77 -213 0
-65 77 -216 0
65 -77 -216 0
65 77 216 0
-65 -77 216 0
213 -215 0
-215 216 0
-213 215 -216 0
-67 78 -215 0
-67 78 -218 0
67 -78 -218 0
67 78 218 0
-67 -78 218 0
215 -217 0
-217 218 0
-215 217 -218 0
-68 80 -217 0
-68 80 -220 0
68 -80 -220 0
68 80 220 0
-68 -80 220 0
217 -219 0
-219 220 0
-217 219 -220 0
-69 81 -219 0
-69 81 -222 0
69 -81 -222 0
69 81 222 0
-69 -81 222 0
219 -221 0
-221 222 0
-219 221 -222 0
-70 82 -221 0
-70 82 -224 0
70 -82 -224 0
70 82 224 0
-70 -82 224 0
221 -223 0
-223 224 0
-221 223 -224 0
-71 83 -223 0
-71 83 -226 0
71 -83 -226 0
71 83 226 0
-71 -83 226 0
223 -225 0
-225 226 0
-223 225 -226 0
-72 84 -225 0
-72 84 -228 0
72 -84 -228 0
72 84 228 0
-72 -84 228 0
225 -227 0
-227 228 0
-225 227 -228 0
-73 85 0
-73 85 -229 0
73 -85 -229 0
73 85 229 0
-73 -85 229 0
-74 86 -229 0
-74 86 -231 0
74 -86 -231 0
74 86 231 0
-74 -86 231 0
229 -230 0
-230 231 0
-229 230 -231 0
-75 87 -230 0
-75 87 -233 0
75 -87 -233 0
75 87 233 0
-75 -87 233 0
230 -232 0
-232 233 0
-230 232 -233 0
-76 88 -232 0
-76 88 -235 0
76 -88 -235 0
76 88 235 0
-76 -88 235 0
232 -234 0
-234 235 0
-232 234 -235 0
-77 89 -234 0
-77 89 -237 0
77 -89 -237 0
77 89 237 0
-77 -89 237 0
234 -236 0
-236 237 0
-234 236 -237 0
-78 90 -236 0
-78 90 -239 0
78 -90 -239 0
78 90 239 0
-78 -90 239 0
236 -238 0
-238 239 0
-236 238 -239 0
-80 91 -238 0
-80 91 -241 0
80 -91 -241 0
80 91 241 0
-80 -91 241 0
238 -240 0
-240 241 0
-238 240 -241 0
-81 93 -240 0
-81 93 -243 0
81 -93 -243 0
81 93 243 0
-81 -93 243 0
240 -242 0
-242 243 0
-240 242 -243 0
-82 94 -242 0
-82 94 -245 0
82 -94 -245 0
82 94 245 0
-82 -94 245 0
242 -244 0
-244 245 0
-242 244 -245 0
-83 95 -244 0
-83 95 -247 0
83 -95 -247 0
83 95 247 0
-83 -95 247 0
244 -246 0
-246 247 0
-244 246 -247 0
-84 96 -246 0
-84 96 -249 0
84 -96 -249 0
84 96 249 0
-84 -96 249 0
246 -248 0
-248 249 0
-246 248 -249 0
-85 97 0
-85 97 -250 0
85 -97 -250 0
85 97 250 0
-85 -97 250 0
-86 98 -250 0
-86 98 -252 0
86 -98 -252 0
86 98 252 0
-86 -98 252 0
250 -251 0
-251 252 0
-250 251 -252 0
-87 99 -251 0
-87 99 -254 0
87 -99 -254 0
87 99 254 0
-87 -99 254 0
251 -253 0
-253 254 0
-251 253 -254 0
-88 100 -253 0
-88 100 -256 0
88 -100 -256 0
88 100 256 0
-88 -100 256 0
253 -255 0
-255 256 0
-253 255 -256 0
-89 101 -255 0
-89 101 -258 0
89 -101 -258 0
89 101 258 0
-89 -101 258 0
255 -257 0
-257 258 0
-255 257 -258 0
-90 102 -257 0
-90 102 -260 0
90 -102 -260 0
90 102 260 0
-90 -102 260 0
257 -259 0
-259 260 0
-257 259 -260 0
-91 103 -259 0
-91 103 -262 0
91 -103 -262 0
91 103 262 0
-91 -103 262 0
259 -261 0
-261 262 0
-259 261 -262 0
-93 104 -261 0
-93 104 -264 0
93 -104 -264 0
93 104 264 0
-93 -104 264 0
261 -263 0
-263 264 0
-261 263 -264 0
-94 106 -263 0
-94 106 -266 0
94 -106 -266 0
94 106 266 0
-94 -106 266 0
263 -265 0
-265 266 0
-263 265 -266 0
-95 107 -265 0
-95 107 -268 0
95 -107 -268 0
95 107 268 0
-95 -107 268 0
265 -267 0
-267 268 0
-265 267 -268 0
-96 108 -267 0
-96 108 -270 0
96 -108 -270 0
96 108 270 0
-96 -108 270 0
267 -269 0
-269 270 0
-267 269 -270 0
-97 109 0
-97 109 -271 0
97 -109 -271 0
97 109 271 0
-97 -109 271 0
-98 110 -271 0
-98 110 -273 0
98 -110 -273 0
98 110 273 0
-98 -110 273 0
271 -272 0
-272 273 0
-271 272 -273 0
-99 111 -272 0
-99 111 -275 0
99 -111 -275 0
99 111 275 0
-99 -111 275 0
272 -274 0
-274 275 0
-272 274 -275 0
-100 112 -274 0
-100 112 -277 0
100 -112 -277 0
100 112 277 0
-100 -112 277 0
274 -276 0
-276 277 0
-274 276 -277 0
-101 113 -276 0
-101 113 -279 0
101 -113 -279 0
101 113 279 0
-101 -113 279 0
276 -278 0
-278 279 0
-276 278 -279 0
-102 114 -278 0
-102 114 -281 0
102 -114 -281 0
102 114 281 0
-102 -114 281 0
278 -280 0
-280 281 0
-278 280 -281 0
-103 115 -280 0
-103 115 -283 0
103 -115 -283 0
103 115 283 0
-103 -115 283 0
280 -282 0
-282 283 0
-280 282 -283 0
-104 116 -282 0
-104 116 -285 0
104 -116 -285 0
104 116 285 0
-104 -116 285 0
282 -284 0
-284 285 0
-282 284 -285 0
-106 117 -284 0
-106 117 -287 0
106 -117 -287 0
106 117 287 0
-106 -117 287 0
284 -286 0
-286 287 0
-284 286 -287 0
-107 119 -286 0
-107 119 -289 0
107 -119 -289 0
107 119 289 0
-107 -119 289 0
286 -288 0
-288 289 0
-286 288 -289 0
-108 120 -288 0
-108 120 -291 0
108 -120 -291 0
108 120 291 0
-108 -120 291 0
288 -290 0
-290 291 0
-288 290 -291 0
-109 121 0
-109 121 -292 0
109 -121 -292 0
109 121 292 0
-109 -121 292 0
-110 122 -292 0
-110 122 -294 0
110 -122 -294 0
110 122 294 0
-110 -122 294 0
292 -293 0
-293 294 0
-292 293 -294 0
-111 123 -293 0
-111 123 -296 0
111 -123 -296 0
111 123 296 0
-111 -123 296 0
293 -295 0
-295 296 0
-293 295 -296 0
-112 124 -295 0
-112 124 -298 0
112 -124 -298 0
112 124 298 0
-112 -124 298 0
295 -297 0
-297 298 0
-295 297 -298 0
-113 125 -297 0
-113 125 -300 0
113 -125 -300 0
113 125 300 0
-113 -125 300 0
297 -299 0
-299 300 0
-297 299 -300 0
-114 126 -299 0
-114 126 -302 0
114 -126 -302 0
114 126 302 0
-114 -126 302 0
299 -301 0
-301 302 0
-299 301 -302 0
-115 127 -301 0
-115 127 -304 0
115 -127 -304 0
115 127 304 0
-115 -127 304 0
301 -303 0
-303 304 0
-301 303 -304 0
-116 128 -303 0
-116 128 -306 0
116 -128 -306 0
116 128 306 0
-116 -128 306 0
303 -305 0
-305 306 0
-303 305 -306 0
-117 129 -305 0
-117 129 -308 0
117 -129 -308 0
117 129 308 0
-117 -129 308 0
305 -307 0
-307 308 0
-305 307 -308 0
-119 130 -307 0
-119 130 -310 0
119 -130 -310 0
119 130 310 0
-119 -130 310 0
307 -309 0
-309 310 0
-307 309 -310 0
-120 132 -309 0
-120 132 -312 0
120 -132 -312 0
120 132 312 0
-120 -132 312 0
309 -311 0
-311 312 0
-309 311 -312 0
-121 133 0
-121 133 -313 0
121 -133 -313 0
121 133 313 0
-121 -133 313 0
-122 134 -313 0
-122 134 -315 0
122 -134 -315 0
122 134 315 0
-122 -134 315 0
313 -314 0
-314 315 0
-313 314 -315 0
-123 135 -314 0
-123 135 -317 0
123 -135 -317 0
123 135 317 0
-123 -135 317 0
314 -316 0
-316 317 0
-314 316 -317 0
-124 136 -316 0
-124 136 -319 0
124 -136 -319 0
124 136 319 0
-124 -136 319 0
316 -318 0
-318 319 0
-316 318 -319 0
-125 137 -318 0
-125 137 -321 0
125 -137 -321 0
125 137 321 0
-125 -137 321 0
318 -320 0
-320 321 0
-318 320 -321 0
-126 138 -320 0
-126 138 -323 0
126 -138 -323 0
126 138 323 0
-126 -138 323 0
320 -322 0
-322 323 0
-320 322 -323 0
-127 139 -322 0
-127 139 -325 0
127 -139 -325 0
127 139 325 0
-127 -139 325 0
322 -324 0
-324 325 0
-322 324 -325 0
-128 140 -324 0
-128 140 -327 0
128 -140 -327 0
128 140 327 0
-128 -140 327 0
324 -326 0
-326 327 0
-324 326 -327 0
-129 141 -326 0
-129 141 -329 0
129 -141 -329 0
129 141 329 0
-129 -141 329 0
326 -328 0
-328 329 0
-326 328 -329 0
-130 142 -328 0
-130 142 -331 0
130 -142 -331 0
130 142 331 0
-130 -142 331 0
328 -330 0
-330 331 0
-328 330 -331 0
-132 143 -330 0
-132 143 -333 0
132 -143 -333 0
132 143 333 0
-132 -143 333 0
330 -332 0
-332 333 0
-330 332 -333 0
