c 4-color 509_parts.vtx n=509 m=2442 triangle=(0, 149, 152)
p cnf 2036 10280
1 2 3 4 0
5 6 7 8 0
9 10 11 12 0
13 14 15 16 0
17 18 19 20 0
21 22 23 24 0
25 26 27 28 0
29 30 31 32 0
33 34 35 36 0
37 38 39 40 0
41 42 43 44 0
45 46 47 48 0
49 50 51 52 0
53 54 55 56 0
57 58 59 60 0
61 62 63 64 0
65 66 67 68 0
69 70 71 72 0
73 74 75 76 0
77 78 79 80 0
81 82 83 84 0
85 86 87 88 0
89 90 91 92 0
93 94 95 96 0
97 98 99 100 0
101 102 103 104 0
105 106 107 108 0
109 110 111 112 0
113 114 115 116 0
117 118 119 120 0
121 122 123 124 0
125 126 127 128 0
129 130 131 132 0
133 134 135 136 0
137 138 139 140 0
141 142 143 144 0
145 146 147 148 0
149 150 151 152 0
153 154 155 156 0
157 158 159 160 0
161 162 163 164 0
165 166 167 168 0
169 170 171 172 0
173 174 175 176 0
177 178 179 180 0
181 182 183 184 0
185 186 187 188 0
189 190 191 192 0
193 194 195 196 0
197 198 199 200 0
201 202 203 204 0
205 206 207 208 0
209 210 211 212 0
213 214 215 216 0
217 218 219 220 0
221 222 223 224 0
225 226 227 228 0
229 230 231 232 0
233 234 235 236 0
237 238 239 240 0
241 242 243 244 0
245 246 247 248 0
249 250 251 252 0
253 254 255 256 0
257 258 259 260 0
261 262 263 264 0
265 266 267 268 0
269 270 271 272 0
273 274 275 276 0
277 278 279 280 0
281 282 283 284 0
285 286 287 288 0
289 290 291 292 0
293 294 295 296 0
297 298 299 300 0
301 302 303 304 0
305 306 307 308 0
309 310 311 312 0
313 314 315 316 0
317 318 319 320 0
321 322 323 324 0
325 326 327 328 0
329 330 331 332 0
333 334 335 336 0
337 338 339 340 0
341 342 343 344 0
345 346 347 348 0
349 350 351 352 0
353 354 355 356 0
357 358 359 360 0
361 362 363 364 0
365 366 367 368 0
369 370 371 372 0
373 374 375 376 0
377 378 379 380 0
381 382 383 384 0
385 386 387 388 0
389 390 391 392 0
393 394 395 396 0
397 398 399 400 0
401 402 403 404 0
405 406 407 408 0
409 410 411 412 0
413 414 415 416 0
417 418 419 420 0
421 422 423 424 0
425 426 427 428 0
429 430 431 432 0
433 434 435 436 0
437 438 439 440 0
441 442 443 444 0
445 446 447 448 0
449 450 451 452 0
453 454 455 456 0
457 458 459 460 0
461 462 463 464 0
465 466 467 468 0
469 470 471 472 0
473 474 475 476 0
477 478 479 480 0
481 482 483 484 0
485 486 487 488 0
489 490 491 492 0
493 494 495 496 0
497 498 499 500 0
501 502 503 504 0
505 506 507 508 0
509 510 511 512 0
513 514 515 516 0
517 518 519 520 0
521 522 523 524 0
525 526 527 528 0
529 530 531 532 0
533 534 535 536 0
537 538 539 540 0
541 542 543 544 0
545 546 547 548 0
549 550 551 552 0
553 554 555 556 0
557 558 559 560 0
561 562 563 564 0
565 566 567 568 0
569 570 571 572 0
573 574 575 576 0
577 578 579 580 0
581 582 583 584 0
585 586 587 588 0
589 590 591 592 0
593 594 595 596 0
597 598 599 600 0
601 602 603 604 0
605 606 607 608 0
609 610 611 612 0
613 614 615 616 0
617 618 619 620 0
621 622 623 624 0
625 626 627 628 0
629 630 631 632 0
633 634 635 636 0
637 638 639 640 0
641 642 643 644 0
645 646 647 648 0
649 650 651 652 0
653 654 655 656 0
657 658 659 660 0
661 662 663 664 0
665 666 667 668 0
669 670 671 672 0
673 674 675 676 0
677 678 679 680 0
681 682 683 684 0
685 686 687 688 0
689 690 691 692 0
693 694 695 696 0
697 698 699 700 0
701 702 703 704 0
705 706 707 708 0
709 710 711 712 0
713 714 715 716 0
717 718 719 720 0
721 722 723 724 0
725 726 727 728 0
729 730 731 732 0
733 734 735 736 0
737 738 739 740 0
741 742 743 744 0
745 746 747 748 0
749 750 751 752 0
753 754 755 756 0
757 758 759 760 0
761 762 763 764 0
765 766 767 768 0
769 770 771 772 0
773 774 775 776 0
777 778 779 780 0
781 782 783 784 0
785 786 787 788 0
789 790 791 792 0
793 794 795 796 0
797 798 799 800 0
801 802 803 804 0
805 806 807 808 0
809 810 811 812 0
813 814 815 816 0
817 818 819 820 0
821 822 823 824 0
825 826 827 828 0
829 830 831 832 0
833 834 835 836 0
837 838 839 840 0
841 842 843 844 0
845 846 847 848 0
849 850 851 852 0
853 854 855 856 0
857 858 859 860 0
861 862 863 864 0
865 866 867 868 0
869 870 871 872 0
873 874 875 876 0
877 878 879 880 0
881 882 883 884 0
885 886 887 888 0
889 890 891 892 0
893 894 895 896 0
897 898 899 900 0
901 902 903 904 0
905 906 907 908 0
909 910 911 912 0
913 914 915 916 0
917 918 919 920 0
921 922 923 924 0
925 926 927 928 0
929 930 931 932 0
933 934 935 936 0
937 938 939 940 0
941 942 943 944 0
945 946 947 948 0
949 950 951 952 0
953 954 955 956 0
957 958 959 960 0
961 962 963 964 0
965 966 967 968 0
969 970 971 972 0
973 974 975 976 0
977 978 979 980 0
981 982 983 984 0
985 986 987 988 0
989 990 991 992 0
993 994 995 996 0
997 998 999 1000 0
1001 1002 1003 1004 0
1005 1006 1007 1008 0
1009 1010 1011 1012 0
1013 1014 1015 1016 0
1017 1018 1019 1020 0
1021 1022 1023 1024 0
1025 1026 1027 1028 0
1029 1030 1031 1032 0
1033 1034 1035 1036 0
1037 1038 1039 1040 0
1041 1042 1043 1044 0
1045 1046 1047 1048 0
1049 1050 1051 1052 0
1053 1054 1055 1056 0
1057 1058 1059 1060 0
1061 1062 1063 1064 0
1065 1066 1067 1068 0
1069 1070 1071 1072 0
1073 1074 1075 1076 0
1077 1078 1079 1080 0
1081 1082 1083 1084 0
1085 1086 1087 1088 0
1089 1090 1091 1092 0
1093 1094 1095 1096 0
1097 1098 1099 1100 0
1101 1102 1103 1104 0
1105 1106 1107 1108 0
1109 1110 1111 1112 0
1113 1114 1115 1116 0
1117 1118 1119 1120 0
1121 1122 1123 1124 0
1125 1126 1127 1128 0
1129 1130 1131 1132 0
1133 1134 1135 1136 0
1137 1138 1139 1140 0
1141 1142 1143 1144 0
1145 1146 1147 1148 0
1149 1150 1151 1152 0
1153 1154 1155 1156 0
1157 1158 1159 1160 0
1161 1162 1163 1164 0
1165 1166 1167 1168 0
1169 1170 1171 1172 0
1173 1174 1175 1176 0
1177 1178 1179 1180 0
1181 1182 1183 1184 0
1185 1186 1187 1188 0
1189 1190 1191 1192 0
1193 1194 1195 1196 0
1197 1198 1199 1200 0
1201 1202 1203 1204 0
1205 1206 1207 1208 0
1209 1210 1211 1212 0
1213 1214 1215 1216 0
1217 1218 1219 1220 0
1221 1222 1223 1224 0
1225 1226 1227 1228 0
1229 1230 1231 1232 0
1233 1234 1235 1236 0
1237 1238 1239 1240 0
1241 1242 1243 1244 0
1245 1246 1247 1248 0
1249 1250 1251 1252 0
1253 1254 1255 1256 0
1257 1258 1259 1260 0
1261 1262 1263 1264 0
1265 1266 1267 1268 0
1269 1270 1271 1272 0
1273 1274 1275 1276 0
1277 1278 1279 1280 0
1281 1282 1283 1284 0
1285 1286 1287 1288 0
1289 1290 1291 1292 0
1293 1294 1295 1296 0
1297 1298 1299 1300 0
1301 1302 1303 1304 0
1305 1306 1307 1308 0
1309 1310 1311 1312 0
1313 1314 1315 1316 0
1317 1318 1319 1320 0
1321 1322 1323 1324 0
1325 1326 1327 1328 0
1329 1330 1331 1332 0
1333 1334 1335 1336 0
1337 1338 1339 1340 0
1341 1342 1343 1344 0
1345 1346 1347 1348 0
1349 1350 1351 1352 0
1353 1354 1355 1356 0
1357 1358 1359 1360 0
1361 1362 1363 1364 0
1365 1366 1367 1368 0
1369 1370 1371 1372 0
1373 1374 1375 1376 0
1377 1378 1379 1380 0
1381 1382 1383 1384 0
1385 1386 1387 1388 0
1389 1390 1391 1392 0
1393 1394 1395 1396 0
1397 1398 1399 1400 0
1401 1402 1403 1404 0
1405 1406 1407 1408 0
1409 1410 1411 1412 0
1413 1414 1415 1416 0
1417 1418 1419 1420 0
1421 1422 1423 1424 0
1425 1426 1427 1428 0
1429 1430 1431 1432 0
1433 1434 1435 1436 0
1437 1438 1439 1440 0
1441 1442 1443 1444 0
1445 1446 1447 1448 0
1449 1450 1451 1452 0
1453 1454 1455 1456 0
1457 1458 1459 1460 0
1461 1462 1463 1464 0
1465 1466 1467 1468 0
1469 1470 1471 1472 0
1473 1474 1475 1476 0
1477 1478 1479 1480 0
1481 1482 1483 1484 0
1485 1486 1487 1488 0
1489 1490 1491 1492 0
1493 1494 1495 1496 0
1497 1498 1499 1500 0
1501 1502 1503 1504 0
1505 1506 1507 1508 0
1509 1510 1511 1512 0
1513 1514 1515 1516 0
1517 1518 1519 1520 0
1521 1522 1523 1524 0
1525 1526 1527 1528 0
1529 1530 1531 1532 0
1533 1534 1535 1536 0
1537 1538 1539 1540 0
1541 1542 1543 1544 0
1545 1546 1547 1548 0
1549 1550 1551 1552 0
1553 1554 1555 1556 0
1557 1558 1559 1560 0
1561 1562 1563 1564 0
1565 1566 1567 1568 0
1569 1570 1571 1572 0
1573 1574 1575 1576 0
1577 1578 1579 1580 0
1581 1582 1583 1584 0
1585 1586 1587 1588 0
1589 1590 1591 1592 0
1593 1594 1595 1596 0
1597 1598 1599 1600 0
1601 1602 1603 1604 0
1605 1606 1607 1608 0
1609 1610 1611 1612 0
1613 1614 1615 1616 0
1617 1618 1619 1620 0
1621 1622 1623 1624 0
1625 1626 1627 1628 0
1629 1630 1631 1632 0
1633 1634 1635 1636 0
1637 1638 1639 1640 0
1641 1642 1643 1644 0
1645 1646 1647 1648 0
1649 1650 1651 1652 0
1653 1654 1655 1656 0
1657 1658 1659 1660 0
1661 1662 1663 1664 0
1665 1666 1667 1668 0
1669 1670 1671 1672 0
1673 1674 1675 1676 0
1677 1678 1679 1680 0
1681 1682 1683 1684 0
1685 1686 1687 1688 0
1689 1690 1691 1692 0
1693 1694 1695 1696 0
1697 1698 1699 1700 0
1701 1702 1703 1704 0
1705 1706 1707 1708 0
1709 1710 1711 1712 0
1713 1714 1715 1716 0
1717 1718 1719 1720 0
1721 1722 1723 1724 0
1725 1726 1727 1728 0
1729 1730 1731 1732 0
1733 1734 1735 1736 0
1737 1738 1739 1740 0
1741 1742 1743 1744 0
1745 1746 1747 1748 0
1749 1750 1751 1752 0
1753 1754 1755 1756 0
1757 1758 1759 1760 0
1761 1762 1763 1764 0
1765 1766 1767 1768 0
1769 1770 1771 1772 0
1773 1774 1775 1776 0
1777 1778 1779 1780 0
1781 1782 1783 1784 0
1785 1786 1787 1788 0
1789 1790 1791 1792 0
1793 1794 1795 1796 0
1797 1798 1799 1800 0
1801 1802 1803 1804 0
1805 1806 1807 1808 0
1809 1810 1811 1812 0
1813 1814 1815 1816 0
1817 1818 1819 1820 0
1821 1822 1823 1824 0
1825 1826 1827 1828 0
1829 1830 1831 1832 0
1833 1834 1835 1836 0
1837 1838 1839 1840 0
1841 1842 1843 1844 0
1845 1846 1847 1848 0
1849 1850 1851 1852 0
1853 1854 1855 1856 0
1857 1858 1859 1860 0
1861 1862 1863 1864 0
1865 1866 1867 1868 0
1869 1870 1871 1872 0
1873 1874 1875 1876 0
1877 1878 1879 1880 0
1881 1882 1883 1884 0
1885 1886 1887 1888 0
1889 1890 1891 1892 0
1893 1894 1895 1896 0
1897 1898 1899 1900 0
1901 1902 1903 1904 0
1905 1906 1907 1908 0
1909 1910 1911 1912 0
1913 1914 1915 1916 0
1917 1918 1919 1920 0
1921 1922 1923 1924 0
1925 1926 1927 1928 0
1929 1930 1931 1932 0
1933 1934 1935 1936 0
1937 1938 1939 1940 0
1941 1942 1943 1944 0
1945 1946 1947 1948 0
1949 1950 1951 1952 0
1953 1954 1955 1956 0
1957 1958 1959 1960 0
1961 1962 1963 1964 0
1965 1966 1967 1968 0
1969 1970 1971 1972 0
1973 1974 1975 1976 0
1977 1978 1979 1980 0
1981 1982 1983 1984 0
1985 1986 1987 1988 0
1989 1990 1991 1992 0
1993 1994 1995 1996 0
1997 1998 1999 2000 0
2001 2002 2003 2004 0
2005 2006 2007 2008 0
2009 2010 2011 2012 0
2013 2014 2015 2016 0
2017 2018 2019 2020 0
2021 2022 2023 2024 0
2025 2026 2027 2028 0
2029 2030 2031 2032 0
2033 2034 2035 2036 0
-1 -593 0
-2 -594 0
-3 -595 0
-4 -596 0
-1 -597 0
-2 -598 0
-3 -599 0
-4 -600 0
-1 -601 0
-2 -602 0
-3 -603 0
-4 -604 0
-1 -605 0
-2 -606 0
-3 -607 0
-4 -608 0
-1 -609 0
-2 -610 0
-3 -611 0
-4 -612 0
-1 -613 0
-2 -614 0
-3 -615 0
-4 -616 0
-1 -617 0
-2 -618 0
-3 -619 0
-4 -620 0
-1 -621 0
-2 -622 0
-3 -623 0
-4 -624 0
-1 -625 0
-2 -626 0
-3 -627 0
-4 -628 0
-1 -629 0
-2 -630 0
-3 -631 0
-4 -632 0
-1 -633 0
-2 -634 0
-3 -635 0
-4 -636 0
-1 -637 0
-2 -638 0
-3 -639 0
-4 -640 0
-1 -641 0
-2 -642 0
-3 -643 0
-4 -644 0
-1 -645 0
-2 -646 0
-3 -647 0
-4 -648 0
-1 -649 0
-2 -650 0
-3 -651 0
-4 -652 0
-1 -653 0
-2 -654 0
-3 -655 0
-4 -656 0
-1 -657 0
-2 -658 0
-3 -659 0
-4 -660 0
-1 -661 0
-2 -662 0
-3 -663 0
-4 -664 0
-1 -665 0
-2 -666 0
-3 -667 0
-4 -668 0
-1 -669 0
-2 -670 0
-3 -671 0
-4 -672 0
-1 -673 0
-2 -674 0
-3 -675 0
-4 -676 0
-1 -677 0
-2 -678 0
-3 -679 0
-4 -680 0
-1 -681 0
-2 -682 0
-3 -683 0
-4 -684 0
-1 -685 0
-2 -686 0
-3 -687 0
-4 -688 0
-1 -1589 0
-2 -1590 0
-3 -1591 0
-4 -1592 0
-1 -1593 0
-2 -1594 0
-3 -1595 0
-4 -1596 0
-1 -1597 0
-2 -1598 0
-3 -1599 0
-4 -1600 0
-1 -1601 0
-2 -1602 0
-3 -1603 0
-4 -1604 0
-1 -1605 0
-2 -1606 0
-3 -1607 0
-4 -1608 0
-1 -1609 0
-2 -1610 0
-3 -1611 0
-4 -1612 0
-1 -1613 0
-2 -1614 0
-3 -1615 0
-4 -1616 0
-1 -1617 0
-2 -1618 0
-3 -1619 0
-4 -1620 0
-1 -1621 0
-2 -1622 0
-3 -1623 0
-4 -1624 0
-1 -1625 0
-2 -1626 0
-3 -1627 0
-4 -1628 0
-1 -1629 0
-2 -1630 0
-3 -1631 0
-4 -1632 0
-1 -1633 0
-2 -1634 0
-3 -1635 0
-4 -1636 0
-5 -521 0
-6 -522 0
-7 -523 0
-8 -524 0
-5 -553 0
-6 -554 0
-7 -555 0
-8 -556 0
-5 -569 0
-6 -570 0
-7 -571 0
-8 -572 0
-5 -617 0
-6 -618 0
-7 -619 0
-8 -620 0
-5 -697 0
-6 -698 0
-7 -699 0
-8 -700 0
-5 -729 0
-6 -730 0
-7 -731 0
-8 -732 0
-5 -753 0
-6 -754 0
-7 -755 0
-8 -756 0
-5 -793 0
-6 -794 0
-7 -795 0
-8 -796 0
-5 -797 0
-6 -798 0
-7 -799 0
-8 -800 0
-5 -805 0
-6 -806 0
-7 -807 0
-8 -808 0
-9 -481 0
-10 -482 0
-11 -483 0
-12 -484 0
-9 -485 0
-10 -486 0
-11 -487 0
-12 -488 0
-9 -509 0
-10 -510 0
-11 -511 0
-12 -512 0
-9 -525 0
-10 -526 0
-11 -527 0
-12 -528 0
-9 -557 0
-10 -558 0
-11 -559 0
-12 -560 0
-9 -573 0
-10 -574 0
-11 -575 0
-12 -576 0
-9 -625 0
-10 -626 0
-11 -627 0
-12 -628 0
-9 -673 0
-10 -674 0
-11 -675 0
-12 -676 0
-9 -701 0
-10 -702 0
-11 -703 0
-12 -704 0
-9 -733 0
-10 -734 0
-11 -735 0
-12 -736 0
-9 -749 0
-10 -750 0
-11 -751 0
-12 -752 0
-9 -757 0
-10 -758 0
-11 -759 0
-12 -760 0
-9 -801 0
-10 -802 0
-11 -803 0
-12 -804 0
-9 -809 0
-10 -810 0
-11 -811 0
-12 -812 0
-9 -869 0
-10 -870 0
-11 -871 0
-12 -872 0
-13 -489 0
-14 -490 0
-15 -491 0
-16 -492 0
-13 -493 0
-14 -494 0
-15 -495 0
-16 -496 0
-13 -509 0
-14 -510 0
-15 -511 0
-16 -512 0
-13 -529 0
-14 -530 0
-15 -531 0
-16 -532 0
-13 -561 0
-14 -562 0
-15 -563 0
-16 -564 0
-13 -577 0
-14 -578 0
-15 -579 0
-16 -580 0
-13 -589 0
-14 -590 0
-15 -591 0
-16 -592 0
-13 -637 0
-14 -638 0
-15 -639 0
-16 -640 0
-13 -685 0
-14 -686 0
-15 -687 0
-16 -688 0
-13 -689 0
-14 -690 0
-15 -691 0
-16 -692 0
-13 -705 0
-14 -706 0
-15 -707 0
-16 -708 0
-13 -753 0
-14 -754 0
-15 -755 0
-16 -756 0
-13 -761 0
-14 -762 0
-15 -763 0
-16 -764 0
-13 -809 0
-14 -810 0
-15 -811 0
-16 -812 0
-13 -817 0
-14 -818 0
-15 -819 0
-16 -820 0
-17 -533 0
-18 -534 0
-19 -535 0
-20 -536 0
-17 -565 0
-18 -566 0
-19 -567 0
-20 -568 0
-17 -581 0
-18 -582 0
-19 -583 0
-20 -584 0
-17 -597 0
-18 -598 0
-19 -599 0
-20 -600 0
-17 -693 0
-18 -694 0
-19 -695 0
-20 -696 0
-17 -709 0
-18 -710 0
-19 -711 0
-20 -712 0
-17 -757 0
-18 -758 0
-19 -759 0
-20 -760 0
-17 -765 0
-18 -766 0
-19 -767 0
-20 -768 0
-17 -813 0
-18 -814 0
-19 -815 0
-20 -816 0
-17 -821 0
-18 -822 0
-19 -823 0
-20 -824 0
-21 -529 0
-22 -530 0
-23 -531 0
-24 -532 0
-21 -537 0
-22 -538 0
-23 -539 0
-24 -540 0
-21 -569 0
-22 -570 0
-23 -571 0
-24 -572 0
-21 -649 0
-22 -650 0
-23 -651 0
-24 -652 0
-21 -697 0
-22 -698 0
-23 -699 0
-24 -700 0
-21 -713 0
-22 -714 0
-23 -715 0
-24 -716 0
-21 -761 0
-22 -762 0
-23 -763 0
-24 -764 0
-21 -769 0
-22 -770 0
-23 -771 0
-24 -772 0
-21 -821 0
-22 -822 0
-23 -823 0
-24 -824 0
-21 -829 0
-22 -830 0
-23 -831 0
-24 -832 0
-25 -497 0
-26 -498 0
-27 -499 0
-28 -500 0
-25 -501 0
-26 -502 0
-27 -503 0
-28 -504 0
-25 -533 0
-26 -534 0
-27 -535 0
-28 -536 0
-25 -541 0
-26 -542 0
-27 -543 0
-28 -544 0
-25 -573 0
-26 -574 0
-27 -575 0
-28 -576 0
-25 -609 0
-26 -610 0
-27 -611 0
-28 -612 0
-25 -657 0
-26 -658 0
-27 -659 0
-28 -660 0
-25 -701 0
-26 -702 0
-27 -703 0
-28 -704 0
-25 -717 0
-26 -718 0
-27 -719 0
-28 -720 0
-25 -765 0
-26 -766 0
-27 -767 0
-28 -768 0
-25 -773 0
-26 -774 0
-27 -775 0
-28 -776 0
-25 -825 0
-26 -826 0
-27 -827 0
-28 -828 0
-25 -833 0
-26 -834 0
-27 -835 0
-28 -836 0
-25 -873 0
-26 -874 0
-27 -875 0
-28 -876 0
-29 -461 0
-30 -462 0
-31 -463 0
-32 -464 0
-29 -501 0
-30 -502 0
-31 -503 0
-32 -504 0
-29 -513 0
-30 -514 0
-31 -515 0
-32 -516 0
-29 -545 0
-30 -546 0
-31 -547 0
-32 -548 0
-29 -577 0
-30 -578 0
-31 -579 0
-32 -580 0
-29 -621 0
-30 -622 0
-31 -623 0
-32 -624 0
-29 -669 0
-30 -670 0
-31 -671 0
-32 -672 0
-29 -705 0
-30 -706 0
-31 -707 0
-32 -708 0
-29 -721 0
-30 -722 0
-31 -723 0
-32 -724 0
-29 -769 0
-30 -770 0
-31 -771 0
-32 -772 0
-29 -777 0
-30 -778 0
-31 -779 0
-32 -780 0
-29 -833 0
-30 -834 0
-31 -835 0
-32 -836 0
-29 -841 0
-30 -842 0
-31 -843 0
-32 -844 0
-29 -877 0
-30 -878 0
-31 -879 0
-32 -880 0
-33 -517 0
-34 -518 0
-35 -519 0
-36 -520 0
-33 -549 0
-34 -550 0
-35 -551 0
-36 -552 0
-33 -581 0
-34 -582 0
-35 -583 0
-36 -584 0
-33 -629 0
-34 -630 0
-35 -631 0
-36 -632 0
-33 -709 0
-34 -710 0
-35 -711 0
-36 -712 0
-33 -725 0
-34 -726 0
-35 -727 0
-36 -728 0
-33 -773 0
-34 -774 0
-35 -775 0
-36 -776 0
-33 -781 0
-34 -782 0
-35 -783 0
-36 -784 0
-33 -837 0
-34 -838 0
-35 -839 0
-36 -840 0
-33 -845 0
-34 -846 0
-35 -847 0
-36 -848 0
-37 -513 0
-38 -514 0
-39 -515 0
-40 -516 0
-37 -537 0
-38 -538 0
-39 -539 0
-40 -540 0
-37 -553 0
-38 -554 0
-39 -555 0
-40 -556 0
-37 -681 0
-38 -682 0
-39 -683 0
-40 -684 0
-37 -713 0
-38 -714 0
-39 -715 0
-40 -716 0
-37 -729 0
-38 -730 0
-39 -731 0
-40 -732 0
-37 -777 0
-38 -778 0
-39 -779 0
-40 -780 0
-37 -785 0
-38 -786 0
-39 -787 0
-40 -788 0
-37 -845 0
-38 -846 0
-39 -847 0
-40 -848 0
-37 -853 0
-38 -854 0
-39 -855 0
-40 -856 0
-41 -465 0
-42 -466 0
-43 -467 0
-44 -468 0
-41 -469 0
-42 -470 0
-43 -471 0
-44 -472 0
-41 -505 0
-42 -506 0
-43 -507 0
-44 -508 0
-41 -517 0
-42 -518 0
-43 -519 0
-44 -520 0
-41 -541 0
-42 -542 0
-43 -543 0
-44 -544 0
-41 -557 0
-42 -558 0
-43 -559 0
-44 -560 0
-41 -585 0
-42 -586 0
-43 -587 0
-44 -588 0
-41 -593 0
-42 -594 0
-43 -595 0
-44 -596 0
-41 -641 0
-42 -642 0
-43 -643 0
-44 -644 0
-41 -717 0
-42 -718 0
-43 -719 0
-44 -720 0
-41 -733 0
-42 -734 0
-43 -735 0
-44 -736 0
-41 -781 0
-42 -782 0
-43 -783 0
-44 -784 0
-41 -789 0
-42 -790 0
-43 -791 0
-44 -792 0
-41 -849 0
-42 -850 0
-43 -851 0
-44 -852 0
-41 -857 0
-42 -858 0
-43 -859 0
-44 -860 0
-45 -473 0
-46 -474 0
-47 -475 0
-48 -476 0
-45 -477 0
-46 -478 0
-47 -479 0
-48 -480 0
-45 -505 0
-46 -506 0
-47 -507 0
-48 -508 0
-45 -521 0
-46 -522 0
-47 -523 0
-48 -524 0
-45 -545 0
-46 -546 0
-47 -547 0
-48 -548 0
-45 -561 0
-46 -562 0
-47 -563 0
-48 -564 0
-45 -605 0
-46 -606 0
-47 -607 0
-48 -608 0
-45 -653 0
-46 -654 0
-47 -655 0
-48 -656 0
-45 -689 0
-46 -690 0
-47 -691 0
-48 -692 0
-45 -721 0
-46 -722 0
-47 -723 0
-48 -724 0
-45 -785 0
-46 -786 0
-47 -787 0
-48 -788 0
-45 -793 0
-46 -794 0
-47 -795 0
-48 -796 0
-45 -857 0
-46 -858 0
-47 -859 0
-48 -860 0
-45 -865 0
-46 -866 0
-47 -867 0
-48 -868 0
-45 -881 0
-46 -882 0
-47 -883 0
-48 -884 0
-49 -525 0
-50 -526 0
-51 -527 0
-52 -528 0
-49 -549 0
-50 -550 0
-51 -551 0
-52 -552 0
-49 -565 0
-50 -566 0
-51 -567 0
-52 -568 0
-49 -661 0
-50 -662 0
-51 -663 0
-52 -664 0
-49 -693 0
-50 -694 0
-51 -695 0
-52 -696 0
-49 -725 0
-50 -726 0
-51 -727 0
-52 -728 0
-49 -749 0
-50 -750 0
-51 -751 0
-52 -752 0
-49 -789 0
-50 -790 0
-51 -791 0
-52 -792 0
-49 -797 0
-50 -798 0
-51 -799 0
-52 -800 0
-49 -861 0
-50 -862 0
-51 -863 0
-52 -864 0
-53 -373 0
-54 -374 0
-55 -375 0
-56 -376 0
-53 -377 0
-54 -378 0
-55 -379 0
-56 -380 0
-53 -421 0
-54 -422 0
-55 -423 0
-56 -424 0
-53 -425 0
-54 -426 0
-55 -427 0
-56 -428 0
-53 -505 0
-54 -506 0
-55 -507 0
-56 -508 0
-53 -509 0
-54 -510 0
-55 -511 0
-56 -512 0
-53 -737 0
-54 -738 0
-55 -739 0
-56 -740 0
-53 -745 0
-54 -746 0
-55 -747 0
-56 -748 0
-53 -753 0
-54 -754 0
-55 -755 0
-56 -756 0
-53 -789 0
-54 -790 0
-55 -791 0
-56 -792 0
-53 -869 0
-54 -870 0
-55 -871 0
-56 -872 0
-53 -881 0
-54 -882 0
-55 -883 0
-56 -884 0
-57 -389 0
-58 -390 0
-59 -391 0
-60 -392 0
-57 -393 0
-58 -394 0
-59 -395 0
-60 -396 0
-57 -437 0
-58 -438 0
-59 -439 0
-60 -440 0
-57 -441 0
-58 -442 0
-59 -443 0
-60 -444 0
-57 -501 0
-58 -502 0
-59 -503 0
-60 -504 0
-57 -509 0
-58 -510 0
-59 -511 0
-60 -512 0
-57 -737 0
-58 -738 0
-59 -739 0
-60 -740 0
-57 -741 0
-58 -742 0
-59 -743 0
-60 -744 0
-57 -757 0
-58 -758 0
-59 -759 0
-60 -760 0
-57 -769 0
-58 -770 0
-59 -771 0
-60 -772 0
-57 -873 0
-58 -874 0
-59 -875 0
-60 -876 0
-61 -357 0
-62 -358 0
-63 -359 0
-64 -360 0
-61 -361 0
-62 -362 0
-63 -363 0
-64 -364 0
-61 -405 0
-62 -406 0
-63 -407 0
-64 -408 0
-61 -409 0
-62 -410 0
-63 -411 0
-64 -412 0
-61 -501 0
-62 -502 0
-63 -503 0
-64 -504 0
-61 -505 0
-62 -506 0
-63 -507 0
-64 -508 0
-61 -741 0
-62 -742 0
-63 -743 0
-64 -744 0
-61 -745 0
-62 -746 0
-63 -747 0
-64 -748 0
-61 -773 0
-62 -774 0
-63 -775 0
-64 -776 0
-61 -785 0
-62 -786 0
-63 -787 0
-64 -788 0
-61 -877 0
-62 -878 0
-63 -879 0
-64 -880 0
-65 -325 0
-66 -326 0
-67 -327 0
-68 -328 0
-65 -369 0
-66 -370 0
-67 -371 0
-68 -372 0
-65 -457 0
-66 -458 0
-67 -459 0
-68 -460 0
-65 -489 0
-66 -490 0
-67 -491 0
-68 -492 0
-65 -613 0
-66 -614 0
-67 -615 0
-68 -616 0
-65 -669 0
-66 -670 0
-67 -671 0
-68 -672 0
-65 -809 0
-66 -810 0
-67 -811 0
-68 -812 0
-65 -861 0
-66 -862 0
-67 -863 0
-68 -864 0
-65 -901 0
-66 -902 0
-67 -903 0
-68 -904 0
-65 -905 0
-66 -906 0
-67 -907 0
-68 -908 0
-69 -345 0
-70 -346 0
-71 -347 0
-72 -348 0
-69 -397 0
-70 -398 0
-71 -399 0
-72 -400 0
-69 -457 0
-70 -458 0
-71 -459 0
-72 -460 0
-69 -485 0
-70 -486 0
-71 -487 0
-72 -488 0
-69 -585 0
-70 -586 0
-71 -587 0
-72 -588 0
-69 -601 0
-70 -602 0
-71 -603 0
-72 -604 0
-69 -641 0
-70 -642 0
-71 -643 0
-72 -644 0
-69 -809 0
-70 -810 0
-71 -811 0
-72 -812 0
-69 -829 0
-70 -830 0
-71 -831 0
-72 -832 0
-69 -889 0
-70 -890 0
-71 -891 0
-72 -892 0
-69 -917 0
-70 -918 0
-71 -919 0
-72 -920 0
-69 -921 0
-70 -922 0
-71 -923 0
-72 -924 0
-73 -341 0
-74 -342 0
-75 -343 0
-76 -344 0
-73 -385 0
-74 -386 0
-75 -387 0
-76 -388 0
-73 -449 0
-74 -450 0
-75 -451 0
-76 -452 0
-73 -605 0
-74 -606 0
-75 -607 0
-76 -608 0
-73 -645 0
-74 -646 0
-75 -647 0
-76 -648 0
-73 -813 0
-74 -814 0
-75 -815 0
-76 -816 0
-73 -833 0
-74 -834 0
-75 -835 0
-76 -836 0
-73 -885 0
-74 -886 0
-75 -887 0
-76 -888 0
-73 -925 0
-74 -926 0
-75 -927 0
-76 -928 0
-73 -929 0
-74 -930 0
-75 -931 0
-76 -932 0
-77 -313 0
-78 -314 0
-79 -315 0
-80 -316 0
-77 -365 0
-78 -366 0
-79 -367 0
-80 -368 0
-77 -449 0
-78 -450 0
-79 -451 0
-80 -452 0
-77 -633 0
-78 -634 0
-79 -635 0
-80 -636 0
-77 -673 0
-78 -674 0
-79 -675 0
-80 -676 0
-77 -833 0
-78 -834 0
-79 -835 0
-80 -836 0
-77 -853 0
-78 -854 0
-79 -855 0
-80 -856 0
-77 -897 0
-78 -898 0
-79 -899 0
-80 -900 0
-77 -941 0
-78 -942 0
-79 -943 0
-80 -944 0
-77 -945 0
-78 -946 0
-79 -947 0
-80 -948 0
-81 -309 0
-82 -310 0
-83 -311 0
-84 -312 0
-81 -353 0
-82 -354 0
-83 -355 0
-84 -356 0
-81 -453 0
-82 -454 0
-83 -455 0
-84 -456 0
-81 -473 0
-82 -474 0
-83 -475 0
-84 -476 0
-81 -589 0
-82 -590 0
-83 -591 0
-84 -592 0
-81 -637 0
-82 -638 0
-83 -639 0
-84 -640 0
-81 -677 0
-82 -678 0
-83 -679 0
-84 -680 0
-81 -837 0
-82 -838 0
-83 -839 0
-84 -840 0
-81 -857 0
-82 -858 0
-83 -859 0
-84 -860 0
-81 -893 0
-82 -894 0
-83 -895 0
-84 -896 0
-81 -949 0
-82 -950 0
-83 -951 0
-84 -952 0
-81 -953 0
-82 -954 0
-83 -955 0
-84 -956 0
-85 -329 0
-86 -330 0
-87 -331 0
-88 -332 0
-85 -381 0
-86 -382 0
-87 -383 0
-88 -384 0
-85 -453 0
-86 -454 0
-87 -455 0
-88 -456 0
-85 -469 0
-86 -470 0
-87 -471 0
-88 -472 0
-85 -609 0
-86 -610 0
-87 -611 0
-88 -612 0
-85 -665 0
-86 -666 0
-87 -667 0
-88 -668 0
-85 -805 0
-86 -806 0
-87 -807 0
-88 -808 0
-85 -857 0
-86 -858 0
-87 -859 0
-88 -860 0
-85 -965 0
-86 -966 0
-87 -967 0
-88 -968 0
-85 -969 0
-86 -970 0
-87 -971 0
-88 -972 0
-89 -325 0
-90 -326 0
-91 -327 0
-92 -328 0
-89 -337 0
-90 -338 0
-91 -339 0
-92 -340 0
-89 -421 0
-90 -422 0
-91 -423 0
-92 -424 0
-89 -433 0
-90 -434 0
-91 -435 0
-92 -436 0
-89 -701 0
-90 -702 0
-91 -703 0
-92 -704 0
-89 -729 0
-90 -730 0
-91 -731 0
-92 -732 0
-89 -901 0
-90 -902 0
-91 -903 0
-92 -904 0
-93 -333 0
-94 -334 0
-95 -335 0
-96 -336 0
-93 -345 0
-94 -346 0
-95 -347 0
-96 -348 0
-93 -429 0
-94 -430 0
-95 -431 0
-96 -432 0
-93 -441 0
-94 -442 0
-95 -443 0
-96 -444 0
-93 -689 0
-94 -690 0
-95 -691 0
-96 -692 0
-93 -709 0
-94 -710 0
-95 -711 0
-96 -712 0
-93 -921 0
-94 -922 0
-95 -923 0
-96 -924 0
-97 -305 0
-98 -306 0
-99 -307 0
-100 -308 0
-97 -341 0
-98 -342 0
-99 -343 0
-100 -344 0
-97 -401 0
-98 -402 0
-99 -403 0
-100 -404 0
-97 -437 0
-98 -438 0
-99 -439 0
-100 -440 0
-97 -697 0
-98 -698 0
-99 -699 0
-100 -700 0
-97 -717 0
-98 -718 0
-99 -719 0
-100 -720 0
-97 -925 0
-98 -926 0
-99 -927 0
-100 -928 0
-101 -313 0
-102 -314 0
-103 -315 0
-104 -316 0
-101 -349 0
-102 -350 0
-103 -351 0
-104 -352 0
-101 -409 0
-102 -410 0
-103 -411 0
-104 -412 0
-101 -445 0
-102 -446 0
-103 -447 0
-104 -448 0
-101 -705 0
-102 -706 0
-103 -707 0
-104 -708 0
-101 -725 0
-102 -726 0
-103 -727 0
-104 -728 0
-101 -945 0
-102 -946 0
-103 -947 0
-104 -948 0
-105 -309 0
-106 -310 0
-107 -311 0
-108 -312 0
-105 -321 0
-106 -322 0
-107 -323 0
-108 -324 0
-105 -405 0
-106 -406 0
-107 -407 0
-108 -408 0
-105 -417 0
-106 -418 0
-107 -419 0
-108 -420 0
-105 -713 0
-106 -714 0
-107 -715 0
-108 -716 0
-105 -733 0
-106 -734 0
-107 -735 0
-108 -736 0
-105 -949 0
-106 -950 0
-107 -951 0
-108 -952 0
-109 -317 0
-110 -318 0
-111 -319 0
-112 -320 0
-109 -329 0
-110 -330 0
-111 -331 0
-112 -332 0
-109 -413 0
-110 -414 0
-111 -415 0
-112 -416 0
-109 -425 0
-110 -426 0
-111 -427 0
-112 -428 0
-109 -693 0
-110 -694 0
-111 -695 0
-112 -696 0
-109 -721 0
-110 -722 0
-111 -723 0
-112 -724 0
-109 -969 0
-110 -970 0
-111 -971 0
-112 -972 0
-113 -245 0
-114 -246 0
-115 -247 0
-116 -248 0
-113 -249 0
-114 -250 0
-115 -251 0
-116 -252 0
-113 -293 0
-114 -294 0
-115 -295 0
-116 -296 0
-113 -321 0
-114 -322 0
-115 -323 0
-116 -324 0
-113 -337 0
-114 -338 0
-115 -339 0
-116 -340 0
-113 -469 0
-114 -470 0
-115 -471 0
-116 -472 0
-113 -549 0
-114 -550 0
-115 -551 0
-116 -552 0
-113 -573 0
-114 -574 0
-115 -575 0
-116 -576 0
-113 -757 0
-114 -758 0
-115 -759 0
-116 -760 0
-113 -789 0
-114 -790 0
-115 -791 0
-116 -792 0
-113 -909 0
-114 -910 0
-115 -911 0
-116 -912 0
-113 -985 0
-114 -986 0
-115 -987 0
-116 -988 0
-117 -253 0
-118 -254 0
-119 -255 0
-120 -256 0
-117 -257 0
-118 -258 0
-119 -259 0
-120 -260 0
-117 -325 0
-118 -326 0
-119 -327 0
-120 -328 0
-117 -341 0
-118 -342 0
-119 -343 0
-120 -344 0
-117 -477 0
-118 -478 0
-119 -479 0
-120 -480 0
-117 -553 0
-118 -554 0
-119 -555 0
-120 -556 0
-117 -577 0
-118 -578 0
-119 -579 0
-120 -580 0
-117 -761 0
-118 -762 0
-119 -763 0
-120 -764 0
-117 -793 0
-118 -794 0
-119 -795 0
-120 -796 0
-117 -885 0
-118 -886 0
-119 -887 0
-120 -888 0
-117 -905 0
-118 -906 0
-119 -907 0
-120 -908 0
-117 -1025 0
-118 -1026 0
-119 -1027 0
-120 -1028 0
-121 -257 0
-122 -258 0
-123 -259 0
-124 -260 0
-121 -261 0
-122 -262 0
-123 -263 0
-124 -264 0
-121 -329 0
-122 -330 0
-123 -331 0
-124 -332 0
-121 -345 0
-122 -346 0
-123 -347 0
-124 -348 0
-121 -497 0
-122 -498 0
-123 -499 0
-124 -500 0
-121 -557 0
-122 -558 0
-123 -559 0
-124 -560 0
-121 -581 0
-122 -582 0
-123 -583 0
-124 -584 0
-121 -749 0
-122 -750 0
-123 -751 0
-124 -752 0
-121 -765 0
-122 -766 0
-123 -767 0
-124 -768 0
-121 -917 0
-122 -918 0
-123 -919 0
-124 -920 0
-121 -1029 0
-122 -1030 0
-123 -1031 0
-124 -1032 0
-125 -265 0
-126 -266 0
-127 -267 0
-128 -268 0
-125 -269 0
-126 -270 0
-127 -271 0
-128 -272 0
-125 -297 0
-126 -298 0
-127 -299 0
-128 -300 0
-125 -333 0
-126 -334 0
-127 -335 0
-128 -336 0
-125 -349 0
-126 -350 0
-127 -351 0
-128 -352 0
-125 -537 0
-126 -538 0
-127 -539 0
-128 -540 0
-125 -561 0
-126 -562 0
-127 -563 0
-128 -564 0
-125 -753 0
-126 -754 0
-127 -755 0
-128 -756 0
-125 -769 0
-126 -770 0
-127 -771 0
-128 -772 0
-125 -913 0
-126 -914 0
-127 -915 0
-128 -916 0
-125 -989 0
-126 -990 0
-127 -991 0
-128 -992 0
-125 -997 0
-126 -998 0
-127 -999 0
-128 -1000 0
-129 -269 0
-130 -270 0
-131 -271 0
-132 -272 0
-129 -273 0
-130 -274 0
-131 -275 0
-132 -276 0
-129 -301 0
-130 -302 0
-131 -303 0
-132 -304 0
-129 -305 0
-130 -306 0
-131 -307 0
-132 -308 0
-129 -337 0
-130 -338 0
-131 -339 0
-132 -340 0
-129 -485 0
-130 -486 0
-131 -487 0
-132 -488 0
-129 -541 0
-130 -542 0
-131 -543 0
-132 -544 0
-129 -565 0
-130 -566 0
-131 -567 0
-132 -568 0
-129 -757 0
-130 -758 0
-131 -759 0
-132 -760 0
-129 -773 0
-130 -774 0
-131 -775 0
-132 -776 0
-129 -933 0
-130 -934 0
-131 -935 0
-132 -936 0
-129 -993 0
-130 -994 0
-131 -995 0
-132 -996 0
-129 -1001 0
-130 -1002 0
-131 -1003 0
-132 -1004 0
-133 -209 0
-134 -210 0
-135 -211 0
-136 -212 0
-133 -277 0
-134 -278 0
-135 -279 0
-136 -280 0
-133 -309 0
-134 -310 0
-135 -311 0
-136 -312 0
-133 -341 0
-134 -342 0
-135 -343 0
-136 -344 0
-133 -493 0
-134 -494 0
-135 -495 0
-136 -496 0
-133 -545 0
-134 -546 0
-135 -547 0
-136 -548 0
-133 -569 0
-134 -570 0
-135 -571 0
-136 -572 0
-133 -761 0
-134 -762 0
-135 -763 0
-136 -764 0
-133 -777 0
-134 -778 0
-135 -779 0
-136 -780 0
-133 -893 0
-134 -894 0
-135 -895 0
-136 -896 0
-133 -929 0
-134 -930 0
-135 -931 0
-136 -932 0
-133 -1033 0
-134 -1034 0
-135 -1035 0
-136 -1036 0
-137 -209 0
-138 -210 0
-139 -211 0
-140 -212 0
-137 -213 0
-138 -214 0
-139 -215 0
-140 -216 0
-137 -313 0
-138 -314 0
-139 -315 0
-140 -316 0
-137 -345 0
-138 -346 0
-139 -347 0
-140 -348 0
-137 -465 0
-138 -466 0
-139 -467 0
-140 -468 0
-137 -549 0
-138 -550 0
-139 -551 0
-140 -552 0
-137 -573 0
-138 -574 0
-139 -575 0
-140 -576 0
-137 -765 0
-138 -766 0
-139 -767 0
-140 -768 0
-137 -781 0
-138 -782 0
-139 -783 0
-140 -784 0
-137 -889 0
-138 -890 0
-139 -891 0
-140 -892 0
-137 -941 0
-138 -942 0
-139 -943 0
-140 -944 0
-137 -1037 0
-138 -1038 0
-139 -1039 0
-140 -1040 0
-141 -217 0
-142 -218 0
-143 -219 0
-144 -220 0
-141 -221 0
-142 -222 0
-143 -223 0
-144 -224 0
-141 -281 0
-142 -282 0
-143 -283 0
-144 -284 0
-141 -317 0
-142 -318 0
-143 -319 0
-144 -320 0
-141 -349 0
-142 -350 0
-143 -351 0
-144 -352 0
-141 -473 0
-142 -474 0
-143 -475 0
-144 -476 0
-141 -553 0
-142 -554 0
-143 -555 0
-144 -556 0
-141 -577 0
-142 -578 0
-143 -579 0
-144 -580 0
-141 -769 0
-142 -770 0
-143 -771 0
-144 -772 0
-141 -785 0
-142 -786 0
-143 -787 0
-144 -788 0
-141 -937 0
-142 -938 0
-143 -939 0
-144 -940 0
-141 -1005 0
-142 -1006 0
-143 -1007 0
-144 -1008 0
-141 -1013 0
-142 -1014 0
-143 -1015 0
-144 -1016 0
-145 -221 0
-146 -222 0
-147 -223 0
-148 -224 0
-145 -225 0
-146 -226 0
-147 -227 0
-148 -228 0
-145 -285 0
-146 -286 0
-147 -287 0
-148 -288 0
-145 -305 0
-146 -306 0
-147 -307 0
-148 -308 0
-145 -321 0
-146 -322 0
-147 -323 0
-148 -324 0
-145 -557 0
-146 -558 0
-147 -559 0
-148 -560 0
-145 -581 0
-146 -582 0
-147 -583 0
-148 -584 0
-145 -773 0
-146 -774 0
-147 -775 0
-148 -776 0
-145 -789 0
-146 -790 0
-147 -791 0
-148 -792 0
-145 -957 0
-146 -958 0
-147 -959 0
-148 -960 0
-145 -1009 0
-146 -1010 0
-147 -1011 0
-148 -1012 0
-145 -1017 0
-146 -1018 0
-147 -1019 0
-148 -1020 0
-149 -229 0
-150 -230 0
-151 -231 0
-152 -232 0
-149 -233 0
-150 -234 0
-151 -235 0
-152 -236 0
-149 -309 0
-150 -310 0
-151 -311 0
-152 -312 0
-149 -325 0
-150 -326 0
-151 -327 0
-152 -328 0
-149 -461 0
-150 -462 0
-151 -463 0
-152 -464 0
-149 -537 0
-150 -538 0
-151 -539 0
-152 -540 0
-149 -561 0
-150 -562 0
-151 -563 0
-152 -564 0
-149 -777 0
-150 -778 0
-151 -779 0
-152 -780 0
-149 -793 0
-150 -794 0
-151 -795 0
-152 -796 0
-149 -953 0
-150 -954 0
-151 -955 0
-152 -956 0
-149 -1041 0
-150 -1042 0
-151 -1043 0
-152 -1044 0
-153 -233 0
-154 -234 0
-155 -235 0
-156 -236 0
-153 -237 0
-154 -238 0
-155 -239 0
-156 -240 0
-153 -313 0
-154 -314 0
-155 -315 0
-156 -316 0
-153 -329 0
-154 -330 0
-155 -331 0
-156 -332 0
-153 -481 0
-154 -482 0
-155 -483 0
-156 -484 0
-153 -541 0
-154 -542 0
-155 -543 0
-156 -544 0
-153 -565 0
-154 -566 0
-155 -567 0
-156 -568 0
-153 -749 0
-154 -750 0
-155 -751 0
-156 -752 0
-153 -781 0
-154 -782 0
-155 -783 0
-156 -784 0
-153 -897 0
-154 -898 0
-155 -899 0
-156 -900 0
-153 -965 0
-154 -966 0
-155 -967 0
-156 -968 0
-153 -1045 0
-154 -1046 0
-155 -1047 0
-156 -1048 0
-157 -241 0
-158 -242 0
-159 -243 0
-160 -244 0
-157 -245 0
-158 -246 0
-159 -247 0
-160 -248 0
-157 -289 0
-158 -290 0
-159 -291 0
-160 -292 0
-157 -317 0
-158 -318 0
-159 -319 0
-160 -320 0
-157 -333 0
-158 -334 0
-159 -335 0
-160 -336 0
-157 -489 0
-158 -490 0
-159 -491 0
-160 -492 0
-157 -545 0
-158 -546 0
-159 -547 0
-160 -548 0
-157 -569 0
-158 -570 0
-159 -571 0
-160 -572 0
-157 -753 0
-158 -754 0
-159 -755 0
-160 -756 0
-157 -785 0
-158 -786 0
-159 -787 0
-160 -788 0
-157 -961 0
-158 -962 0
-159 -963 0
-160 -964 0
-157 -1021 0
-158 -1022 0
-159 -1023 0
-160 -1024 0
-161 -245 0
-162 -246 0
-163 -247 0
-164 -248 0
-161 -257 0
-162 -258 0
-163 -259 0
-164 -260 0
-161 -297 0
-162 -298 0
-163 -299 0
-164 -300 0
-161 -385 0
-162 -386 0
-163 -387 0
-164 -388 0
-161 -617 0
-162 -618 0
-163 -619 0
-164 -620 0
-161 -673 0
-162 -674 0
-163 -675 0
-164 -676 0
-161 -701 0
-162 -702 0
-163 -703 0
-164 -704 0
-161 -729 0
-162 -730 0
-163 -731 0
-164 -732 0
-161 -913 0
-162 -914 0
-163 -915 0
-164 -916 0
-161 -965 0
-162 -966 0
-163 -967 0
-164 -968 0
-161 -973 0
-162 -974 0
-163 -975 0
-164 -976 0
-161 -1049 0
-162 -1050 0
-163 -1051 0
-164 -1052 0
-165 -249 0
-166 -250 0
-167 -251 0
-168 -252 0
-165 -261 0
-166 -262 0
-167 -263 0
-168 -264 0
-165 -369 0
-166 -370 0
-167 -371 0
-168 -372 0
-165 -389 0
-166 -390 0
-167 -391 0
-168 -392 0
-165 -625 0
-166 -626 0
-167 -627 0
-168 -628 0
-165 -677 0
-166 -678 0
-167 -679 0
-168 -680 0
-165 -733 0
-166 -734 0
-167 -735 0
-168 -736 0
-165 -901 0
-166 -902 0
-167 -903 0
-168 -904 0
-165 -985 0
-166 -986 0
-167 -987 0
-168 -988 0
-165 -1029 0
-166 -1030 0
-167 -1031 0
-168 -1032 0
-165 -1053 0
-166 -1054 0
-167 -1055 0
-168 -1056 0
-169 -253 0
-170 -254 0
-171 -255 0
-172 -256 0
-169 -265 0
-170 -266 0
-171 -267 0
-172 -268 0
-169 -377 0
-170 -378 0
-171 -379 0
-172 -380 0
-169 -397 0
-170 -398 0
-171 -399 0
-172 -400 0
-169 -633 0
-170 -634 0
-171 -635 0
-172 -636 0
-169 -685 0
-170 -686 0
-171 -687 0
-172 -688 0
-169 -705 0
-170 -706 0
-171 -707 0
-172 -708 0
-169 -921 0
-170 -922 0
-171 -923 0
-172 -924 0
-169 -989 0
-170 -990 0
-171 -991 0
-172 -992 0
-169 -1025 0
-170 -1026 0
-171 -1027 0
-172 -1028 0
-169 -1057 0
-170 -1058 0
-171 -1059 0
-172 -1060 0
-173 -257 0
-174 -258 0
-175 -259 0
-176 -260 0
-173 -269 0
-174 -270 0
-175 -271 0
-176 -272 0
-173 -293 0
-174 -294 0
-175 -295 0
-176 -296 0
-173 -381 0
-174 -382 0
-175 -383 0
-176 -384 0
-173 -597 0
-174 -598 0
-175 -599 0
-176 -600 0
-173 -637 0
-174 -638 0
-175 -639 0
-176 -640 0
-173 -689 0
-174 -690 0
-175 -691 0
-176 -692 0
-173 -709 0
-174 -710 0
-175 -711 0
-176 -712 0
-173 -909 0
-174 -910 0
-175 -911 0
-176 -912 0
-173 -929 0
-174 -930 0
-175 -931 0
-176 -932 0
-173 -973 0
-174 -974 0
-175 -975 0
-176 -976 0
-173 -993 0
-174 -994 0
-175 -995 0
-176 -996 0
-173 -1061 0
-174 -1062 0
-175 -1063 0
-176 -1064 0
-177 -209 0
-178 -210 0
-179 -211 0
-180 -212 0
-177 -269 0
-178 -270 0
-179 -271 0
-180 -272 0
-177 -281 0
-178 -282 0
-179 -283 0
-180 -284 0
-177 -353 0
-178 -354 0
-179 -355 0
-180 -356 0
-177 -609 0
-178 -610 0
-179 -611 0
-180 -612 0
-177 -649 0
-178 -650 0
-179 -651 0
-180 -652 0
-177 -697 0
-178 -698 0
-179 -699 0
-180 -700 0
-177 -717 0
-178 -718 0
-179 -719 0
-180 -720 0
-177 -917 0
-178 -918 0
-179 -919 0
-180 -920 0
-177 -937 0
-178 -938 0
-179 -939 0
-180 -940 0
-177 -977 0
-178 -978 0
-179 -979 0
-180 -980 0
-177 -997 0
-178 -998 0
-179 -999 0
-180 -1000 0
-177 -1065 0
-178 -1066 0
-179 -1067 0
-180 -1068 0
-181 -213 0
-182 -214 0
-183 -215 0
-184 -216 0
-181 -273 0
-182 -274 0
-183 -275 0
-184 -276 0
-181 -357 0
-182 -358 0
-183 -359 0
-184 -360 0
-181 -385 0
-182 -386 0
-183 -387 0
-184 -388 0
-181 -613 0
-182 -614 0
-183 -615 0
-184 -616 0
-181 -657 0
-182 -658 0
-183 -659 0
-184 -660 0
-181 -701 0
-182 -702 0
-183 -703 0
-184 -704 0
-181 -925 0
-182 -926 0
-183 -927 0
-184 -928 0
-181 -1001 0
-182 -1002 0
-183 -1003 0
-184 -1004 0
-181 -1037 0
-182 -1038 0
-183 -1039 0
-184 -1040 0
-181 -1069 0
-182 -1070 0
-183 -1071 0
-184 -1072 0
-185 -217 0
-186 -218 0
-187 -219 0
-188 -220 0
-185 -277 0
-186 -278 0
-187 -279 0
-188 -280 0
-185 -365 0
-186 -366 0
-187 -367 0
-188 -368 0
-185 -393 0
-186 -394 0
-187 -395 0
-188 -396 0
-185 -621 0
-186 -622 0
-187 -623 0
-188 -624 0
-185 -665 0
-186 -666 0
-187 -667 0
-188 -668 0
-185 -721 0
-186 -722 0
-187 -723 0
-188 -724 0
-185 -945 0
-186 -946 0
-187 -947 0
-188 -948 0
-185 -1005 0
-186 -1006 0
-187 -1007 0
-188 -1008 0
-185 -1033 0
-186 -1034 0
-187 -1035 0
-188 -1036 0
-185 -1073 0
-186 -1074 0
-187 -1075 0
-188 -1076 0
-189 -209 0
-190 -210 0
-191 -211 0
-192 -212 0
-189 -221 0
-190 -222 0
-191 -223 0
-192 -224 0
-189 -301 0
-190 -302 0
-191 -303 0
-192 -304 0
-189 -397 0
-190 -398 0
-191 -399 0
-192 -400 0
-189 -629 0
-190 -630 0
-191 -631 0
-192 -632 0
-189 -669 0
-190 -670 0
-191 -671 0
-192 -672 0
-189 -705 0
-190 -706 0
-191 -707 0
-192 -708 0
-189 -725 0
-190 -726 0
-191 -727 0
-192 -728 0
-189 -933 0
-190 -934 0
-191 -935 0
-192 -936 0
-189 -953 0
-190 -954 0
-191 -955 0
-192 -956 0
-189 -977 0
-190 -978 0
-191 -979 0
-192 -980 0
-189 -1009 0
-190 -1010 0
-191 -1011 0
-192 -1012 0
-189 -1077 0
-190 -1078 0
-191 -1079 0
-192 -1080 0
-193 -221 0
-194 -222 0
-195 -223 0
-196 -224 0
-193 -233 0
-194 -234 0
-195 -235 0
-196 -236 0
-193 -289 0
-194 -290 0
-195 -291 0
-196 -292 0
-193 -369 0
-194 -370 0
-195 -371 0
-196 -372 0
-193 -641 0
-194 -642 0
-195 -643 0
-196 -644 0
-193 -681 0
-194 -682 0
-195 -683 0
-196 -684 0
-193 -713 0
-194 -714 0
-195 -715 0
-196 -716 0
-193 -733 0
-194 -734 0
-195 -735 0
-196 -736 0
-193 -941 0
-194 -942 0
-195 -943 0
-196 -944 0
-193 -961 0
-194 -962 0
-195 -963 0
-196 -964 0
-193 -981 0
-194 -982 0
-195 -983 0
-196 -984 0
-193 -1013 0
-194 -1014 0
-195 -1015 0
-196 -1016 0
-193 -1081 0
-194 -1082 0
-195 -1083 0
-196 -1084 0
-197 -225 0
-198 -226 0
-199 -227 0
-200 -228 0
-197 -237 0
-198 -238 0
-199 -239 0
-200 -240 0
-197 -353 0
-198 -354 0
-199 -355 0
-200 -356 0
-197 -373 0
-198 -374 0
-199 -375 0
-200 -376 0
-197 -593 0
-198 -594 0
-199 -595 0
-200 -596 0
-197 -645 0
-198 -646 0
-199 -647 0
-200 -648 0
-197 -717 0
-198 -718 0
-199 -719 0
-200 -720 0
-197 -949 0
-198 -950 0
-199 -951 0
-200 -952 0
-197 -1017 0
-198 -1018 0
-199 -1019 0
-200 -1020 0
-197 -1045 0
-198 -1046 0
-199 -1047 0
-200 -1048 0
-197 -1085 0
-198 -1086 0
-199 -1087 0
-200 -1088 0
-201 -229 0
-202 -230 0
-203 -231 0
-204 -232 0
-201 -241 0
-202 -242 0
-203 -243 0
-204 -244 0
-201 -361 0
-202 -362 0
-203 -363 0
-204 -364 0
-201 -381 0
-202 -382 0
-203 -383 0
-204 -384 0
-201 -601 0
-202 -602 0
-203 -603 0
-204 -604 0
-201 -653 0
-202 -654 0
-203 -655 0
-204 -656 0
-201 -689 0
-202 -690 0
-203 -691 0
-204 -692 0
-201 -969 0
-202 -970 0
-203 -971 0
-204 -972 0
-201 -1021 0
-202 -1022 0
-203 -1023 0
-204 -1024 0
-201 -1041 0
-202 -1042 0
-203 -1043 0
-204 -1044 0
-201 -1089 0
-202 -1090 0
-203 -1091 0
-204 -1092 0
-205 -233 0
-206 -234 0
-207 -235 0
-208 -236 0
-205 -245 0
-206 -246 0
-207 -247 0
-208 -248 0
-205 -285 0
-206 -286 0
-207 -287 0
-208 -288 0
-205 -365 0
-206 -366 0
-207 -367 0
-208 -368 0
-205 -605 0
-206 -606 0
-207 -607 0
-208 -608 0
-205 -661 0
-206 -662 0
-207 -663 0
-208 -664 0
-205 -693 0
-206 -694 0
-207 -695 0
-208 -696 0
-205 -721 0
-206 -722 0
-207 -723 0
-208 -724 0
-205 -905 0
-206 -906 0
-207 -907 0
-208 -908 0
-205 -957 0
-206 -958 0
-207 -959 0
-208 -960 0
-205 -981 0
-206 -982 0
-207 -983 0
-208 -984 0
-205 -1093 0
-206 -1094 0
-207 -1095 0
-208 -1096 0
-209 -233 0
-210 -234 0
-211 -235 0
-212 -236 0
-209 -257 0
-210 -258 0
-211 -259 0
-212 -260 0
-209 -465 0
-210 -466 0
-211 -467 0
-212 -468 0
-209 -493 0
-210 -494 0
-211 -495 0
-212 -496 0
-209 -545 0
-210 -546 0
-211 -547 0
-212 -548 0
-209 -573 0
-210 -574 0
-211 -575 0
-212 -576 0
-209 -609 0
-210 -610 0
-211 -611 0
-212 -612 0
-209 -669 0
-210 -670 0
-211 -671 0
-212 -672 0
-209 -809 0
-210 -810 0
-211 -811 0
-212 -812 0
-209 -857 0
-210 -858 0
-211 -859 0
-212 -860 0
-209 -909 0
-210 -910 0
-211 -911 0
-212 -912 0
-209 -961 0
-210 -962 0
-211 -963 0
-212 -964 0
-209 -1049 0
-210 -1050 0
-211 -1051 0
-212 -1052 0
-209 -1093 0
-210 -1094 0
-211 -1095 0
-212 -1096 0
-209 -1097 0
-210 -1098 0
-211 -1099 0
-212 -1100 0
-209 -1141 0
-210 -1142 0
-211 -1143 0
-212 -1144 0
-209 -1145 0
-210 -1146 0
-211 -1147 0
-212 -1148 0
-209 -1189 0
-210 -1190 0
-211 -1191 0
-212 -1192 0
-213 -237 0
-214 -238 0
-215 -239 0
-216 -240 0
-213 -261 0
-214 -262 0
-215 -263 0
-216 -264 0
-213 -385 0
-214 -386 0
-215 -387 0
-216 -388 0
-213 -549 0
-214 -550 0
-215 -551 0
-216 -552 0
-213 -613 0
-214 -614 0
-215 -615 0
-216 -616 0
-213 -813 0
-214 -814 0
-215 -815 0
-216 -816 0
-213 -861 0
-214 -862 0
-215 -863 0
-216 -864 0
-213 -1053 0
-214 -1054 0
-215 -1055 0
-216 -1056 0
-213 -1145 0
-214 -1146 0
-215 -1147 0
-216 -1148 0
-217 -241 0
-218 -242 0
-219 -243 0
-220 -244 0
-217 -265 0
-218 -266 0
-219 -267 0
-220 -268 0
-217 -393 0
-218 -394 0
-219 -395 0
-220 -396 0
-217 -473 0
-218 -474 0
-219 -475 0
-220 -476 0
-217 -577 0
-218 -578 0
-219 -579 0
-220 -580 0
-217 -621 0
-218 -622 0
-219 -623 0
-220 -624 0
-217 -677 0
-218 -678 0
-219 -679 0
-220 -680 0
-217 -817 0
-218 -818 0
-219 -819 0
-220 -820 0
-217 -865 0
-218 -866 0
-219 -867 0
-220 -868 0
-217 -969 0
-218 -970 0
-219 -971 0
-220 -972 0
-217 -1057 0
-218 -1058 0
-219 -1059 0
-220 -1060 0
-217 -1149 0
-218 -1150 0
-219 -1151 0
-220 -1152 0
-221 -245 0
-222 -246 0
-223 -247 0
-224 -248 0
-221 -269 0
-222 -270 0
-223 -271 0
-224 -272 0
-221 -369 0
-222 -370 0
-223 -371 0
-224 -372 0
-221 -397 0
-222 -398 0
-223 -399 0
-224 -400 0
-221 -553 0
-222 -554 0
-223 -555 0
-224 -556 0
-221 -581 0
-222 -582 0
-223 -583 0
-224 -584 0
-221 -629 0
-222 -630 0
-223 -631 0
-224 -632 0
-221 -681 0
-222 -682 0
-223 -683 0
-224 -684 0
-221 -797 0
-222 -798 0
-223 -799 0
-224 -800 0
-221 -821 0
-222 -822 0
-223 -823 0
-224 -824 0
-221 -905 0
-222 -906 0
-223 -907 0
-224 -908 0
-221 -917 0
-222 -918 0
-223 -919 0
-224 -920 0
-221 -985 0
-222 -986 0
-223 -987 0
-224 -988 0
-221 -989 0
-222 -990 0
-223 -991 0
-224 -992 0
-221 -1049 0
-222 -1050 0
-223 -1051 0
-224 -1052 0
-221 -1061 0
-222 -1062 0
-223 -1063 0
-224 -1064 0
-221 -1101 0
-222 -1102 0
-223 -1103 0
-224 -1104 0
-221 -1105 0
-222 -1106 0
-223 -1107 0
-224 -1108 0
-225 -249 0
-226 -250 0
-227 -251 0
-228 -252 0
-225 -273 0
-226 -274 0
-227 -275 0
-228 -276 0
-225 -373 0
-226 -374 0
-227 -375 0
-228 -376 0
-225 -557 0
-226 -558 0
-227 -559 0
-228 -560 0
-225 -593 0
-226 -594 0
-227 -595 0
-228 -596 0
-225 -633 0
-226 -634 0
-227 -635 0
-228 -636 0
-225 -801 0
-226 -802 0
-227 -803 0
-228 -804 0
-225 -825 0
-226 -826 0
-227 -827 0
-228 -828 0
-225 -925 0
-226 -926 0
-227 -927 0
-228 -928 0
-225 -993 0
-226 -994 0
-227 -995 0
-228 -996 0
-225 -1053 0
-226 -1054 0
-227 -1055 0
-228 -1056 0
-225 -1153 0
-226 -1154 0
-227 -1155 0
-228 -1156 0
-229 -253 0
-230 -254 0
-231 -255 0
-232 -256 0
-229 -277 0
-230 -278 0
-231 -279 0
-232 -280 0
-229 -381 0
-230 -382 0
-231 -383 0
-232 -384 0
-229 -537 0
-230 -538 0
-231 -539 0
-232 -540 0
-229 -601 0
-230 -602 0
-231 -603 0
-232 -604 0
-229 -805 0
-230 -806 0
-231 -807 0
-232 -808 0
-229 -829 0
-230 -830 0
-231 -831 0
-232 -832 0
-229 -1057 0
-230 -1058 0
-231 -1059 0
-232 -1060 0
-229 -1157 0
-230 -1158 0
-231 -1159 0
-232 -1160 0
-233 -257 0
-234 -258 0
-235 -259 0
-236 -260 0
-233 -461 0
-234 -462 0
-235 -463 0
-236 -464 0
-233 -481 0
-234 -482 0
-235 -483 0
-236 -484 0
-233 -541 0
-234 -542 0
-235 -543 0
-236 -544 0
-233 -561 0
-234 -562 0
-235 -563 0
-236 -564 0
-233 -605 0
-234 -606 0
-235 -607 0
-236 -608 0
-233 -641 0
-234 -642 0
-235 -643 0
-236 -644 0
-233 -809 0
-234 -810 0
-235 -811 0
-236 -812 0
-233 -833 0
-234 -834 0
-235 -835 0
-236 -836 0
-233 -913 0
-234 -914 0
-235 -915 0
-236 -916 0
-233 -933 0
-234 -934 0
-235 -935 0
-236 -936 0
-233 -1061 0
-234 -1062 0
-235 -1063 0
-236 -1064 0
-233 -1065 0
-234 -1066 0
-235 -1067 0
-236 -1068 0
-233 -1109 0
-234 -1110 0
-235 -1111 0
-236 -1112 0
-233 -1113 0
-234 -1114 0
-235 -1115 0
-236 -1116 0
-233 -1157 0
-234 -1158 0
-235 -1159 0
-236 -1160 0
-233 -1161 0
-234 -1162 0
-235 -1163 0
-236 -1164 0
-237 -261 0
-238 -262 0
-239 -263 0
-240 -264 0
-237 -353 0
-238 -354 0
-239 -355 0
-240 -356 0
-237 -565 0
-238 -566 0
-239 -567 0
-240 -568 0
-237 -645 0
-238 -646 0
-239 -647 0
-240 -648 0
-237 -813 0
-238 -814 0
-239 -815 0
-240 -816 0
-237 -837 0
-238 -838 0
-239 -839 0
-240 -840 0
-237 -1069 0
-238 -1070 0
-239 -1071 0
-240 -1072 0
-237 -1161 0
-238 -1162 0
-239 -1163 0
-240 -1164 0
-241 -265 0
-242 -266 0
-243 -267 0
-244 -268 0
-241 -361 0
-242 -362 0
-243 -363 0
-244 -364 0
-241 -489 0
-242 -490 0
-243 -491 0
-244 -492 0
-241 -545 0
-242 -546 0
-243 -547 0
-244 -548 0
-241 -613 0
-242 -614 0
-243 -615 0
-244 -616 0
-241 -653 0
-242 -654 0
-243 -655 0
-244 -656 0
-241 -817 0
-242 -818 0
-243 -819 0
-244 -820 0
-241 -841 0
-242 -842 0
-243 -843 0
-244 -844 0
-241 -921 0
-242 -922 0
-243 -923 0
-244 -924 0
-241 -997 0
-242 -998 0
-243 -999 0
-244 -1000 0
-241 -1073 0
-242 -1074 0
-243 -1075 0
-244 -1076 0
-241 -1165 0
-242 -1166 0
-243 -1167 0
-244 -1168 0
-245 -269 0
-246 -270 0
-247 -271 0
-248 -272 0
-245 -365 0
-246 -366 0
-247 -367 0
-248 -368 0
-245 -385 0
-246 -386 0
-247 -387 0
-248 -388 0
-245 -549 0
-246 -550 0
-247 -551 0
-248 -552 0
-245 -569 0
-246 -570 0
-247 -571 0
-248 -572 0
-245 -617 0
-246 -618 0
-247 -619 0
-248 -620 0
-245 -661 0
-246 -662 0
-247 -663 0
-248 -664 0
-245 -821 0
-246 -822 0
-247 -823 0
-248 -824 0
-245 -845 0
-246 -846 0
-247 -847 0
-248 -848 0
-245 -929 0
-246 -930 0
-247 -931 0
-248 -932 0
-245 -941 0
-246 -942 0
-247 -943 0
-248 -944 0
-245 -1001 0
-246 -1002 0
-247 -1003 0
-248 -1004 0
-245 -1005 0
-246 -1006 0
-247 -1007 0
-248 -1008 0
-245 -1065 0
-246 -1066 0
-247 -1067 0
-248 -1068 0
-245 -1077 0
-246 -1078 0
-247 -1079 0
-248 -1080 0
-245 -1117 0
-246 -1118 0
-247 -1119 0
-248 -1120 0
-245 -1121 0
-246 -1122 0
-247 -1123 0
-248 -1124 0
-249 -273 0
-250 -274 0
-251 -275 0
-252 -276 0
-249 -389 0
-250 -390 0
-251 -391 0
-252 -392 0
-249 -469 0
-250 -470 0
-251 -471 0
-252 -472 0
-249 -573 0
-250 -574 0
-251 -575 0
-252 -576 0
-249 -625 0
-250 -626 0
-251 -627 0
-252 -628 0
-249 -665 0
-250 -666 0
-251 -667 0
-252 -668 0
-249 -825 0
-250 -826 0
-251 -827 0
-252 -828 0
-249 -849 0
-250 -850 0
-251 -851 0
-252 -852 0
-249 -949 0
-250 -950 0
-251 -951 0
-252 -952 0
-249 -1009 0
-250 -1010 0
-251 -1011 0
-252 -1012 0
-249 -1069 0
-250 -1070 0
-251 -1071 0
-252 -1072 0
-249 -1169 0
-250 -1170 0
-251 -1171 0
-252 -1172 0
-253 -277 0
-254 -278 0
-255 -279 0
-256 -280 0
-253 -397 0
-254 -398 0
-255 -399 0
-256 -400 0
-253 -553 0
-254 -554 0
-255 -555 0
-256 -556 0
-253 -633 0
-254 -634 0
-255 -635 0
-256 -636 0
-253 -829 0
-254 -830 0
-255 -831 0
-256 -832 0
-253 -853 0
-254 -854 0
-255 -855 0
-256 -856 0
-253 -1073 0
-254 -1074 0
-255 -1075 0
-256 -1076 0
-253 -1173 0
-254 -1174 0
-255 -1175 0
-256 -1176 0
-257 -477 0
-258 -478 0
-259 -479 0
-260 -480 0
-257 -497 0
-258 -498 0
-259 -499 0
-260 -500 0
-257 -557 0
-258 -558 0
-259 -559 0
-260 -560 0
-257 -577 0
-258 -578 0
-259 -579 0
-260 -580 0
-257 -637 0
-258 -638 0
-259 -639 0
-260 -640 0
-257 -673 0
-258 -674 0
-259 -675 0
-260 -676 0
-257 -833 0
-258 -834 0
-259 -835 0
-260 -836 0
-257 -857 0
-258 -858 0
-259 -859 0
-260 -860 0
-257 -937 0
-258 -938 0
-259 -939 0
-260 -940 0
-257 -957 0
-258 -958 0
-259 -959 0
-260 -960 0
-257 -1077 0
-258 -1078 0
-259 -1079 0
-260 -1080 0
-257 -1081 0
-258 -1082 0
-259 -1083 0
-260 -1084 0
-257 -1125 0
-258 -1126 0
-259 -1127 0
-260 -1128 0
-257 -1129 0
-258 -1130 0
-259 -1131 0
-260 -1132 0
-257 -1173 0
-258 -1174 0
-259 -1175 0
-260 -1176 0
-257 -1177 0
-258 -1178 0
-259 -1179 0
-260 -1180 0
-261 -369 0
-262 -370 0
-263 -371 0
-264 -372 0
-261 -581 0
-262 -582 0
-263 -583 0
-264 -584 0
-261 -677 0
-262 -678 0
-263 -679 0
-264 -680 0
-261 -837 0
-262 -838 0
-263 -839 0
-264 -840 0
-261 -861 0
-262 -862 0
-263 -863 0
-264 -864 0
-261 -1085 0
-262 -1086 0
-263 -1087 0
-264 -1088 0
-261 -1177 0
-262 -1178 0
-263 -1179 0
-264 -1180 0
-265 -377 0
-266 -378 0
-267 -379 0
-268 -380 0
-265 -561 0
-266 -562 0
-267 -563 0
-268 -564 0
-265 -645 0
-266 -646 0
-267 -647 0
-268 -648 0
-265 -685 0
-266 -686 0
-267 -687 0
-268 -688 0
-265 -841 0
-266 -842 0
-267 -843 0
-268 -844 0
-265 -865 0
-266 -866 0
-267 -867 0
-268 -868 0
-265 -945 0
-266 -946 0
-267 -947 0
-268 -948 0
-265 -1013 0
-266 -1014 0
-267 -1015 0
-268 -1016 0
-265 -1089 0
-266 -1090 0
-267 -1091 0
-268 -1092 0
-265 -1181 0
-266 -1182 0
-267 -1183 0
-268 -1184 0
-269 -353 0
-270 -354 0
-271 -355 0
-272 -356 0
-269 -381 0
-270 -382 0
-271 -383 0
-272 -384 0
-269 -537 0
-270 -538 0
-271 -539 0
-272 -540 0
-269 -565 0
-270 -566 0
-271 -567 0
-272 -568 0
-269 -597 0
-270 -598 0
-271 -599 0
-272 -600 0
-269 -649 0
-270 -650 0
-271 -651 0
-272 -652 0
-269 -797 0
-270 -798 0
-271 -799 0
-272 -800 0
-269 -845 0
-270 -846 0
-271 -847 0
-272 -848 0
-269 -953 0
-270 -954 0
-271 -955 0
-272 -956 0
-269 -965 0
-270 -966 0
-271 -967 0
-272 -968 0
-269 -1017 0
-270 -1018 0
-271 -1019 0
-272 -1020 0
-269 -1021 0
-270 -1022 0
-271 -1023 0
-272 -1024 0
-269 -1081 0
-270 -1082 0
-271 -1083 0
-272 -1084 0
-269 -1093 0
-270 -1094 0
-271 -1095 0
-272 -1096 0
-269 -1133 0
-270 -1134 0
-271 -1135 0
-272 -1136 0
-269 -1137 0
-270 -1138 0
-271 -1139 0
-272 -1140 0
-273 -357 0
-274 -358 0
-275 -359 0
-276 -360 0
-273 -485 0
-274 -486 0
-275 -487 0
-276 -488 0
-273 -541 0
-274 -542 0
-275 -543 0
-276 -544 0
-273 -601 0
-274 -602 0
-275 -603 0
-276 -604 0
-273 -657 0
-274 -658 0
-275 -659 0
-276 -660 0
-273 -801 0
-274 -802 0
-275 -803 0
-276 -804 0
-273 -849 0
-274 -850 0
-275 -851 0
-276 -852 0
-273 -901 0
-274 -902 0
-275 -903 0
-276 -904 0
-273 -1085 0
-274 -1086 0
-275 -1087 0
-276 -1088 0
-273 -1185 0
-274 -1186 0
-275 -1187 0
-276 -1188 0
-277 -365 0
-278 -366 0
-279 -367 0
-280 -368 0
-277 -569 0
-278 -570 0
-279 -571 0
-280 -572 0
-277 -665 0
-278 -666 0
-279 -667 0
-280 -668 0
-277 -805 0
-278 -806 0
-279 -807 0
-280 -808 0
-277 -853 0
-278 -854 0
-279 -855 0
-280 -856 0
-277 -1089 0
-278 -1090 0
-279 -1091 0
-280 -1092 0
-277 -1189 0
-278 -1190 0
-279 -1191 0
-280 -1192 0
-281 -317 0
-282 -318 0
-283 -319 0
-284 -320 0
-281 -437 0
-282 -438 0
-283 -439 0
-284 -440 0
-281 -529 0
-282 -530 0
-283 -531 0
-284 -532 0
-281 -697 0
-282 -698 0
-283 -699 0
-284 -700 0
-281 -1021 0
-282 -1022 0
-283 -1023 0
-284 -1024 0
-281 -1101 0
-282 -1102 0
-283 -1103 0
-284 -1104 0
-281 -1149 0
-282 -1150 0
-283 -1151 0
-284 -1152 0
-285 -305 0
-286 -306 0
-287 -307 0
-288 -308 0
-285 -425 0
-286 -426 0
-287 -427 0
-288 -428 0
-285 -525 0
-286 -526 0
-287 -527 0
-288 -528 0
-285 -693 0
-286 -694 0
-287 -695 0
-288 -696 0
-285 -869 0
-286 -870 0
-287 -871 0
-288 -872 0
-285 -1001 0
-286 -1002 0
-287 -1003 0
-288 -1004 0
-285 -1105 0
-286 -1106 0
-287 -1107 0
-288 -1108 0
-285 -1153 0
-286 -1154 0
-287 -1155 0
-288 -1156 0
-289 -333 0
-290 -334 0
-291 -335 0
-292 -336 0
-289 -405 0
-290 -406 0
-291 -407 0
-292 -408 0
-289 -513 0
-290 -514 0
-291 -515 0
-292 -516 0
-289 -713 0
-290 -714 0
-291 -715 0
-292 -716 0
-289 -877 0
-290 -878 0
-291 -879 0
-292 -880 0
-289 -989 0
-290 -990 0
-291 -991 0
-292 -992 0
-289 -1117 0
-290 -1118 0
-291 -1119 0
-292 -1120 0
-289 -1165 0
-290 -1166 0
-291 -1167 0
-292 -1168 0
-293 -321 0
-294 -322 0
-295 -323 0
-296 -324 0
-293 -441 0
-294 -442 0
-295 -443 0
-296 -444 0
-293 -533 0
-294 -534 0
-295 -535 0
-296 -536 0
-293 -709 0
-294 -710 0
-295 -711 0
-296 -712 0
-293 -873 0
-294 -874 0
-295 -875 0
-296 -876 0
-293 -1017 0
-294 -1018 0
-295 -1019 0
-296 -1020 0
-293 -1121 0
-294 -1122 0
-295 -1123 0
-296 -1124 0
-293 -1169 0
-294 -1170 0
-295 -1171 0
-296 -1172 0
-297 -349 0
-298 -350 0
-299 -351 0
-300 -352 0
-297 -421 0
-298 -422 0
-299 -423 0
-300 -424 0
-297 -521 0
-298 -522 0
-299 -523 0
-300 -524 0
-297 -729 0
-298 -730 0
-299 -731 0
-300 -732 0
-297 -881 0
-298 -882 0
-299 -883 0
-300 -884 0
-297 -1005 0
-298 -1006 0
-299 -1007 0
-300 -1008 0
-297 -1133 0
-298 -1134 0
-299 -1135 0
-300 -1136 0
-297 -1181 0
-298 -1182 0
-299 -1183 0
-300 -1184 0
-301 -337 0
-302 -338 0
-303 -339 0
-304 -340 0
-301 -409 0
-302 -410 0
-303 -411 0
-304 -412 0
-301 -517 0
-302 -518 0
-303 -519 0
-304 -520 0
-301 -725 0
-302 -726 0
-303 -727 0
-304 -728 0
-301 -985 0
-302 -986 0
-303 -987 0
-304 -988 0
-301 -1137 0
-302 -1138 0
-303 -1139 0
-304 -1140 0
-301 -1185 0
-302 -1186 0
-303 -1187 0
-304 -1188 0
-305 -437 0
-306 -438 0
-307 -439 0
-308 -440 0
-305 -465 0
-306 -466 0
-307 -467 0
-308 -468 0
-305 -757 0
-306 -758 0
-307 -759 0
-308 -760 0
-305 -789 0
-306 -790 0
-307 -791 0
-308 -792 0
-305 -1053 0
-306 -1054 0
-307 -1055 0
-308 -1056 0
-305 -1093 0
-306 -1094 0
-307 -1095 0
-308 -1096 0
-305 -1101 0
-306 -1102 0
-307 -1103 0
-308 -1104 0
-305 -1193 0
-306 -1194 0
-307 -1195 0
-308 -1196 0
-309 -417 0
-310 -418 0
-311 -419 0
-312 -420 0
-309 -473 0
-310 -474 0
-311 -475 0
-312 -476 0
-309 -589 0
-310 -590 0
-311 -591 0
-312 -592 0
-309 -761 0
-310 -762 0
-311 -763 0
-312 -764 0
-309 -793 0
-310 -794 0
-311 -795 0
-312 -796 0
-309 -1061 0
-310 -1062 0
-311 -1063 0
-312 -1064 0
-309 -1097 0
-310 -1098 0
-311 -1099 0
-312 -1100 0
-309 -1217 0
-310 -1218 0
-311 -1219 0
-312 -1220 0
-313 -445 0
-314 -446 0
-315 -447 0
-316 -448 0
-313 -749 0
-314 -750 0
-315 -751 0
-316 -752 0
-313 -765 0
-314 -766 0
-315 -767 0
-316 -768 0
-313 -1049 0
-314 -1050 0
-315 -1051 0
-316 -1052 0
-313 -1109 0
-314 -1110 0
-315 -1111 0
-316 -1112 0
-313 -1221 0
-314 -1222 0
-315 -1223 0
-316 -1224 0
-317 -425 0
-318 -426 0
-319 -427 0
-320 -428 0
-317 -461 0
-318 -462 0
-319 -463 0
-320 -464 0
-317 -753 0
-318 -754 0
-319 -755 0
-320 -756 0
-317 -769 0
-318 -770 0
-319 -771 0
-320 -772 0
-317 -1057 0
-318 -1058 0
-319 -1059 0
-320 -1060 0
-317 -1065 0
-318 -1066 0
-319 -1067 0
-320 -1068 0
-317 -1105 0
-318 -1106 0
-319 -1107 0
-320 -1108 0
-317 -1197 0
-318 -1198 0
-319 -1199 0
-320 -1200 0
-321 -405 0
-322 -406 0
-323 -407 0
-324 -408 0
-321 -481 0
-322 -482 0
-323 -483 0
-324 -484 0
-321 -757 0
-322 -758 0
-323 -759 0
-324 -760 0
-321 -773 0
-322 -774 0
-323 -775 0
-324 -776 0
-321 -1061 0
-322 -1062 0
-323 -1063 0
-324 -1064 0
-321 -1069 0
-322 -1070 0
-323 -1071 0
-324 -1072 0
-321 -1117 0
-322 -1118 0
-323 -1119 0
-324 -1120 0
-321 -1201 0
-322 -1202 0
-323 -1203 0
-324 -1204 0
-325 -433 0
-326 -434 0
-327 -435 0
-328 -436 0
-325 -489 0
-326 -490 0
-327 -491 0
-328 -492 0
-325 -761 0
-326 -762 0
-327 -763 0
-328 -764 0
-325 -777 0
-326 -778 0
-327 -779 0
-328 -780 0
-325 -1077 0
-326 -1078 0
-327 -1079 0
-328 -1080 0
-325 -1113 0
-326 -1114 0
-327 -1115 0
-328 -1116 0
-325 -1225 0
-326 -1226 0
-327 -1227 0
-328 -1228 0
-329 -413 0
-330 -414 0
-331 -415 0
-332 -416 0
-329 -469 0
-330 -470 0
-331 -471 0
-332 -472 0
-329 -765 0
-330 -766 0
-331 -767 0
-332 -768 0
-329 -781 0
-330 -782 0
-331 -783 0
-332 -784 0
-329 -1065 0
-330 -1066 0
-331 -1067 0
-332 -1068 0
-329 -1125 0
-330 -1126 0
-331 -1127 0
-332 -1128 0
-329 -1229 0
-330 -1230 0
-331 -1231 0
-332 -1232 0
-333 -441 0
-334 -442 0
-335 -443 0
-336 -444 0
-333 -477 0
-334 -478 0
-335 -479 0
-336 -480 0
-333 -769 0
-334 -770 0
-335 -771 0
-336 -772 0
-333 -785 0
-334 -786 0
-335 -787 0
-336 -788 0
-333 -1073 0
-334 -1074 0
-335 -1075 0
-336 -1076 0
-333 -1081 0
-334 -1082 0
-335 -1083 0
-336 -1084 0
-333 -1121 0
-334 -1122 0
-335 -1123 0
-336 -1124 0
-333 -1205 0
-334 -1206 0
-335 -1207 0
-336 -1208 0
-337 -421 0
-338 -422 0
-339 -423 0
-340 -424 0
-337 -497 0
-338 -498 0
-339 -499 0
-340 -500 0
-337 -773 0
-338 -774 0
-339 -775 0
-340 -776 0
-337 -789 0
-338 -790 0
-339 -791 0
-340 -792 0
-337 -1077 0
-338 -1078 0
-339 -1079 0
-340 -1080 0
-337 -1085 0
-338 -1086 0
-339 -1087 0
-340 -1088 0
-337 -1133 0
-338 -1134 0
-339 -1135 0
-340 -1136 0
-337 -1209 0
-338 -1210 0
-339 -1211 0
-340 -1212 0
-341 -401 0
-342 -402 0
-343 -403 0
-344 -404 0
-341 -777 0
-342 -778 0
-343 -779 0
-344 -780 0
-341 -793 0
-342 -794 0
-343 -795 0
-344 -796 0
-341 -1093 0
-342 -1094 0
-343 -1095 0
-344 -1096 0
-341 -1129 0
-342 -1130 0
-343 -1131 0
-344 -1132 0
-341 -1233 0
-342 -1234 0
-343 -1235 0
-344 -1236 0
-345 -429 0
-346 -430 0
-347 -431 0
-348 -432 0
-345 -485 0
-346 -486 0
-347 -487 0
-348 -488 0
-345 -585 0
-346 -586 0
-347 -587 0
-348 -588 0
-345 -749 0
-346 -750 0
-347 -751 0
-348 -752 0
-345 -781 0
-346 -782 0
-347 -783 0
-348 -784 0
-345 -1081 0
-346 -1082 0
-347 -1083 0
-348 -1084 0
-345 -1141 0
-346 -1142 0
-347 -1143 0
-348 -1144 0
-345 -1237 0
-346 -1238 0
-347 -1239 0
-348 -1240 0
-349 -409 0
-350 -410 0
-351 -411 0
-352 -412 0
-349 -493 0
-350 -494 0
-351 -495 0
-352 -496 0
-349 -753 0
-350 -754 0
-351 -755 0
-352 -756 0
-349 -785 0
-350 -786 0
-351 -787 0
-352 -788 0
-349 -1049 0
-350 -1050 0
-351 -1051 0
-352 -1052 0
-349 -1089 0
-350 -1090 0
-351 -1091 0
-352 -1092 0
-349 -1137 0
-350 -1138 0
-351 -1139 0
-352 -1140 0
-349 -1213 0
-350 -1214 0
-351 -1215 0
-352 -1216 0
-353 -453 0
-354 -454 0
-355 -455 0
-356 -456 0
-353 -617 0
-354 -618 0
-355 -619 0
-356 -620 0
-353 -677 0
-354 -678 0
-355 -679 0
-356 -680 0
-353 -965 0
-354 -966 0
-355 -967 0
-356 -968 0
-353 -1145 0
-354 -1146 0
-355 -1147 0
-356 -1148 0
-353 -1249 0
-354 -1250 0
-355 -1251 0
-356 -1252 0
-357 -625 0
-358 -626 0
-359 -627 0
-360 -628 0
-357 -681 0
-358 -682 0
-359 -683 0
-360 -684 0
-357 -901 0
-358 -902 0
-359 -903 0
-360 -904 0
-357 -1153 0
-358 -1154 0
-359 -1155 0
-360 -1156 0
-357 -1193 0
-358 -1194 0
-359 -1195 0
-360 -1196 0
-357 -1221 0
-358 -1222 0
-359 -1223 0
-360 -1224 0
-357 -1253 0
-358 -1254 0
-359 -1255 0
-360 -1256 0
-361 -629 0
-362 -630 0
-363 -631 0
-364 -632 0
-361 -685 0
-362 -686 0
-363 -687 0
-364 -688 0
-361 -921 0
-362 -922 0
-363 -923 0
-364 -924 0
-361 -1149 0
-362 -1150 0
-363 -1151 0
-364 -1152 0
-361 -1197 0
-362 -1198 0
-363 -1199 0
-364 -1200 0
-361 -1217 0
-362 -1218 0
-363 -1219 0
-364 -1220 0
-361 -1253 0
-362 -1254 0
-363 -1255 0
-364 -1256 0
-365 -449 0
-366 -450 0
-367 -451 0
-368 -452 0
-365 -597 0
-366 -598 0
-367 -599 0
-368 -600 0
-365 -633 0
-366 -634 0
-367 -635 0
-368 -636 0
-365 -929 0
-366 -930 0
-367 -931 0
-368 -932 0
-365 -1157 0
-366 -1158 0
-367 -1159 0
-368 -1160 0
-365 -1257 0
-366 -1258 0
-367 -1259 0
-368 -1260 0
-369 -457 0
-370 -458 0
-371 -459 0
-372 -460 0
-369 -613 0
-370 -614 0
-371 -615 0
-372 -616 0
-369 -649 0
-370 -650 0
-371 -651 0
-372 -652 0
-369 -917 0
-370 -918 0
-371 -919 0
-372 -920 0
-369 -1161 0
-370 -1162 0
-371 -1163 0
-372 -1164 0
-369 -1273 0
-370 -1274 0
-371 -1275 0
-372 -1276 0
-373 -617 0
-374 -618 0
-375 -619 0
-376 -620 0
-373 -657 0
-374 -658 0
-375 -659 0
-376 -660 0
-373 -925 0
-374 -926 0
-375 -927 0
-376 -928 0
-373 -1169 0
-374 -1170 0
-375 -1171 0
-376 -1172 0
-373 -1201 0
-374 -1202 0
-375 -1203 0
-376 -1204 0
-373 -1229 0
-374 -1230 0
-375 -1231 0
-376 -1232 0
-373 -1277 0
-374 -1278 0
-375 -1279 0
-376 -1280 0
-377 -621 0
-378 -622 0
-379 -623 0
-380 -624 0
-377 -661 0
-378 -662 0
-379 -663 0
-380 -664 0
-377 -945 0
-378 -946 0
-379 -947 0
-380 -948 0
-377 -1165 0
-378 -1166 0
-379 -1167 0
-380 -1168 0
-377 -1205 0
-378 -1206 0
-379 -1207 0
-380 -1208 0
-377 -1225 0
-378 -1226 0
-379 -1227 0
-380 -1228 0
-377 -1277 0
-378 -1278 0
-379 -1279 0
-380 -1280 0
-381 -453 0
-382 -454 0
-383 -455 0
-384 -456 0
-381 -629 0
-382 -630 0
-383 -631 0
-384 -632 0
-381 -665 0
-382 -666 0
-383 -667 0
-384 -668 0
-381 -953 0
-382 -954 0
-383 -955 0
-384 -956 0
-381 -1173 0
-382 -1174 0
-383 -1175 0
-384 -1176 0
-381 -1281 0
-382 -1282 0
-383 -1283 0
-384 -1284 0
-385 -449 0
-386 -450 0
-387 -451 0
-388 -452 0
-385 -645 0
-386 -646 0
-387 -647 0
-388 -648 0
-385 -681 0
-386 -682 0
-387 -683 0
-388 -684 0
-385 -941 0
-386 -942 0
-387 -943 0
-388 -944 0
-385 -1177 0
-386 -1178 0
-387 -1179 0
-388 -1180 0
-385 -1297 0
-386 -1298 0
-387 -1299 0
-388 -1300 0
-389 -593 0
-390 -594 0
-391 -595 0
-392 -596 0
-389 -649 0
-390 -650 0
-391 -651 0
-392 -652 0
-389 -949 0
-390 -950 0
-391 -951 0
-392 -952 0
-389 -1185 0
-390 -1186 0
-391 -1187 0
-392 -1188 0
-389 -1209 0
-390 -1210 0
-391 -1211 0
-392 -1212 0
-389 -1237 0
-390 -1238 0
-391 -1239 0
-392 -1240 0
-389 -1301 0
-390 -1302 0
-391 -1303 0
-392 -1304 0
-393 -597 0
-394 -598 0
-395 -599 0
-396 -600 0
-393 -653 0
-394 -654 0
-395 -655 0
-396 -656 0
-393 -969 0
-394 -970 0
-395 -971 0
-396 -972 0
-393 -1181 0
-394 -1182 0
-395 -1183 0
-396 -1184 0
-393 -1213 0
-394 -1214 0
-395 -1215 0
-396 -1216 0
-393 -1233 0
-394 -1234 0
-395 -1235 0
-396 -1236 0
-393 -1301 0
-394 -1302 0
-395 -1303 0
-396 -1304 0
-397 -457 0
-398 -458 0
-399 -459 0
-400 -460 0
-397 -601 0
-398 -602 0
-399 -603 0
-400 -604 0
-397 -661 0
-398 -662 0
-399 -663 0
-400 -664 0
-397 -905 0
-398 -906 0
-399 -907 0
-400 -908 0
-397 -1189 0
-398 -1190 0
-399 -1191 0
-400 -1192 0
-397 -1305 0
-398 -1306 0
-399 -1307 0
-400 -1308 0
-401 -413 0
-402 -414 0
-403 -415 0
-404 -416 0
-401 -697 0
-402 -698 0
-403 -699 0
-404 -700 0
-401 -813 0
-402 -814 0
-403 -815 0
-404 -816 0
-405 -441 0
-406 -442 0
-407 -443 0
-408 -444 0
-405 -505 0
-406 -506 0
-407 -507 0
-408 -508 0
-405 -733 0
-406 -734 0
-407 -735 0
-408 -736 0
-405 -865 0
-406 -866 0
-407 -867 0
-408 -868 0
-405 -1217 0
-406 -1218 0
-407 -1219 0
-408 -1220 0
-409 -421 0
-410 -422 0
-411 -423 0
-412 -424 0
-409 -501 0
-410 -502 0
-411 -503 0
-412 -504 0
-409 -705 0
-410 -706 0
-411 -707 0
-412 -708 0
-409 -825 0
-410 -826 0
-411 -827 0
-412 -828 0
-409 -1221 0
-410 -1222 0
-411 -1223 0
-412 -1224 0
-413 -693 0
-414 -694 0
-415 -695 0
-416 -696 0
-413 -805 0
-414 -806 0
-415 -807 0
-416 -808 0
-417 -429 0
-418 -430 0
-419 -431 0
-420 -432 0
-417 -713 0
-418 -714 0
-419 -715 0
-420 -716 0
-417 -837 0
-418 -838 0
-419 -839 0
-420 -840 0
-421 -509 0
-422 -510 0
-423 -511 0
-424 -512 0
-421 -701 0
-422 -702 0
-423 -703 0
-424 -704 0
-421 -817 0
-422 -818 0
-423 -819 0
-424 -820 0
-421 -1225 0
-422 -1226 0
-423 -1227 0
-424 -1228 0
-425 -437 0
-426 -438 0
-427 -439 0
-428 -440 0
-425 -505 0
-426 -506 0
-427 -507 0
-428 -508 0
-425 -721 0
-426 -722 0
-427 -723 0
-428 -724 0
-425 -849 0
-426 -850 0
-427 -851 0
-428 -852 0
-425 -1229 0
-426 -1230 0
-427 -1231 0
-428 -1232 0
-429 -709 0
-430 -710 0
-431 -711 0
-432 -712 0
-429 -829 0
-430 -830 0
-431 -831 0
-432 -832 0
-433 -445 0
-434 -446 0
-435 -447 0
-436 -448 0
-433 -729 0
-434 -730 0
-435 -731 0
-436 -732 0
-433 -861 0
-434 -862 0
-435 -863 0
-436 -864 0
-437 -501 0
-438 -502 0
-439 -503 0
-440 -504 0
-437 -717 0
-438 -718 0
-439 -719 0
-440 -720 0
-437 -841 0
-438 -842 0
-439 -843 0
-440 -844 0
-437 -1233 0
-438 -1234 0
-439 -1235 0
-440 -1236 0
-441 -509 0
-442 -510 0
-443 -511 0
-444 -512 0
-441 -689 0
-442 -690 0
-443 -691 0
-444 -692 0
-441 -801 0
-442 -802 0
-443 -803 0
-444 -804 0
-441 -1237 0
-442 -1238 0
-443 -1239 0
-444 -1240 0
-445 -725 0
-446 -726 0
-447 -727 0
-448 -728 0
-445 -853 0
-446 -854 0
-447 -855 0
-448 -856 0
-449 -1245 0
-450 -1246 0
-451 -1247 0
-452 -1248 0
-449 -1309 0
-450 -1310 0
-451 -1311 0
-452 -1312 0
-453 -1261 0
-454 -1262 0
-455 -1263 0
-456 -1264 0
-453 -1269 0
-454 -1270 0
-455 -1271 0
-456 -1272 0
-457 -1285 0
-458 -1286 0
-459 -1287 0
-460 -1288 0
-457 -1293 0
-458 -1294 0
-459 -1295 0
-460 -1296 0
-461 -577 0
-462 -578 0
-463 -579 0
-464 -580 0
-461 -1057 0
-462 -1058 0
-463 -1059 0
-464 -1060 0
-461 -1217 0
-462 -1218 0
-463 -1219 0
-464 -1220 0
-461 -1313 0
-462 -1314 0
-463 -1315 0
-464 -1316 0
-461 -1337 0
-462 -1338 0
-463 -1339 0
-464 -1340 0
-465 -557 0
-466 -558 0
-467 -559 0
-468 -560 0
-465 -585 0
-466 -586 0
-467 -587 0
-468 -588 0
-465 -889 0
-466 -890 0
-467 -891 0
-468 -892 0
-465 -1053 0
-466 -1054 0
-467 -1055 0
-468 -1056 0
-465 -1221 0
-466 -1222 0
-467 -1223 0
-468 -1224 0
-465 -1317 0
-466 -1318 0
-467 -1319 0
-468 -1320 0
-465 -1341 0
-466 -1342 0
-467 -1343 0
-468 -1344 0
-469 -541 0
-470 -542 0
-471 -543 0
-472 -544 0
-469 -873 0
-470 -874 0
-471 -875 0
-472 -876 0
-469 -1029 0
-470 -1030 0
-471 -1031 0
-472 -1032 0
-469 -1065 0
-470 -1066 0
-471 -1067 0
-472 -1068 0
-469 -1317 0
-470 -1318 0
-471 -1319 0
-472 -1320 0
-473 -561 0
-474 -562 0
-475 -563 0
-476 -564 0
-473 -1033 0
-474 -1034 0
-475 -1035 0
-476 -1036 0
-473 -1061 0
-474 -1062 0
-475 -1063 0
-476 -1064 0
-473 -1321 0
-474 -1322 0
-475 -1323 0
-476 -1324 0
-477 -545 0
-478 -546 0
-479 -547 0
-480 -548 0
-477 -885 0
-478 -886 0
-479 -887 0
-480 -888 0
-477 -1073 0
-478 -1074 0
-479 -1075 0
-480 -1076 0
-477 -1225 0
-478 -1226 0
-479 -1227 0
-480 -1228 0
-477 -1321 0
-478 -1322 0
-479 -1323 0
-480 -1324 0
-477 -1345 0
-478 -1346 0
-479 -1347 0
-480 -1348 0
-481 -573 0
-482 -574 0
-483 -575 0
-484 -576 0
-481 -897 0
-482 -898 0
-483 -899 0
-484 -900 0
-481 -1069 0
-482 -1070 0
-483 -1071 0
-484 -1072 0
-481 -1229 0
-482 -1230 0
-483 -1231 0
-484 -1232 0
-481 -1325 0
-482 -1326 0
-483 -1327 0
-484 -1328 0
-481 -1349 0
-482 -1350 0
-483 -1351 0
-484 -1352 0
-485 -557 0
-486 -558 0
-487 -559 0
-488 -560 0
-485 -1037 0
-486 -1038 0
-487 -1039 0
-488 -1040 0
-485 -1081 0
-486 -1082 0
-487 -1083 0
-488 -1084 0
-485 -1325 0
-486 -1326 0
-487 -1327 0
-488 -1328 0
-489 -577 0
-490 -578 0
-491 -579 0
-492 -580 0
-489 -877 0
-490 -878 0
-491 -879 0
-492 -880 0
-489 -1041 0
-490 -1042 0
-491 -1043 0
-492 -1044 0
-489 -1077 0
-490 -1078 0
-491 -1079 0
-492 -1080 0
-489 -1329 0
-490 -1330 0
-491 -1331 0
-492 -1332 0
-493 -561 0
-494 -562 0
-495 -563 0
-496 -564 0
-493 -589 0
-494 -590 0
-495 -591 0
-496 -592 0
-493 -893 0
-494 -894 0
-495 -895 0
-496 -896 0
-493 -1089 0
-494 -1090 0
-495 -1091 0
-496 -1092 0
-493 -1233 0
-494 -1234 0
-495 -1235 0
-496 -1236 0
-493 -1329 0
-494 -1330 0
-495 -1331 0
-496 -1332 0
-493 -1353 0
-494 -1354 0
-495 -1355 0
-496 -1356 0
-497 -541 0
-498 -542 0
-499 -543 0
-500 -544 0
-497 -1085 0
-498 -1086 0
-499 -1087 0
-500 -1088 0
-497 -1237 0
-498 -1238 0
-499 -1239 0
-500 -1240 0
-497 -1333 0
-498 -1334 0
-499 -1335 0
-500 -1336 0
-497 -1357 0
-498 -1358 0
-499 -1359 0
-500 -1360 0
-501 -737 0
-502 -738 0
-503 -739 0
-504 -740 0
-501 -745 0
-502 -746 0
-503 -747 0
-504 -748 0
-501 -1149 0
-502 -1150 0
-503 -1151 0
-504 -1152 0
-501 -1185 0
-502 -1186 0
-503 -1187 0
-504 -1188 0
-501 -1193 0
-502 -1194 0
-503 -1195 0
-504 -1196 0
-501 -1213 0
-502 -1214 0
-503 -1215 0
-504 -1216 0
-505 -737 0
-506 -738 0
-507 -739 0
-508 -740 0
-505 -741 0
-506 -742 0
-507 -743 0
-508 -744 0
-505 -1153 0
-506 -1154 0
-507 -1155 0
-508 -1156 0
-505 -1165 0
-506 -1166 0
-507 -1167 0
-508 -1168 0
-505 -1197 0
-506 -1198 0
-507 -1199 0
-508 -1200 0
-505 -1201 0
-506 -1202 0
-507 -1203 0
-508 -1204 0
-509 -741 0
-510 -742 0
-511 -743 0
-512 -744 0
-509 -745 0
-510 -746 0
-511 -747 0
-512 -748 0
-509 -1169 0
-510 -1170 0
-511 -1171 0
-512 -1172 0
-509 -1181 0
-510 -1182 0
-511 -1183 0
-512 -1184 0
-509 -1205 0
-510 -1206 0
-511 -1207 0
-512 -1208 0
-509 -1209 0
-510 -1210 0
-511 -1211 0
-512 -1212 0
-513 -621 0
-514 -622 0
-515 -623 0
-516 -624 0
-513 -681 0
-514 -682 0
-515 -683 0
-516 -684 0
-513 -989 0
-514 -990 0
-515 -991 0
-516 -992 0
-513 -1337 0
-514 -1338 0
-515 -1339 0
-516 -1340 0
-517 -593 0
-518 -594 0
-519 -595 0
-520 -596 0
-517 -629 0
-518 -630 0
-519 -631 0
-520 -632 0
-517 -985 0
-518 -986 0
-519 -987 0
-520 -988 0
-517 -993 0
-518 -994 0
-519 -995 0
-520 -996 0
-517 -1341 0
-518 -1342 0
-519 -1343 0
-520 -1344 0
-521 -617 0
-522 -618 0
-523 -619 0
-524 -620 0
-521 -653 0
-522 -654 0
-523 -655 0
-524 -656 0
-521 -997 0
-522 -998 0
-523 -999 0
-524 -1000 0
-521 -1005 0
-522 -1006 0
-523 -1007 0
-524 -1008 0
-521 -1345 0
-522 -1346 0
-523 -1347 0
-524 -1348 0
-525 -625 0
-526 -626 0
-527 -627 0
-528 -628 0
-525 -661 0
-526 -662 0
-527 -663 0
-528 -664 0
-525 -1001 0
-526 -1002 0
-527 -1003 0
-528 -1004 0
-525 -1009 0
-526 -1010 0
-527 -1011 0
-528 -1012 0
-525 -1349 0
-526 -1350 0
-527 -1351 0
-528 -1352 0
-529 -649 0
-530 -650 0
-531 -651 0
-532 -652 0
-529 -685 0
-530 -686 0
-531 -687 0
-532 -688 0
-529 -1013 0
-530 -1014 0
-531 -1015 0
-532 -1016 0
-529 -1021 0
-530 -1022 0
-531 -1023 0
-532 -1024 0
-529 -1353 0
-530 -1354 0
-531 -1355 0
-532 -1356 0
-533 -597 0
-534 -598 0
-535 -599 0
-536 -600 0
-533 -657 0
-534 -658 0
-535 -659 0
-536 -660 0
-533 -1017 0
-534 -1018 0
-535 -1019 0
-536 -1020 0
-533 -1357 0
-534 -1358 0
-535 -1359 0
-536 -1360 0
-537 -697 0
-538 -698 0
-539 -699 0
-540 -700 0
-537 -729 0
-538 -730 0
-539 -731 0
-540 -732 0
-537 -913 0
-538 -914 0
-539 -915 0
-540 -916 0
-537 -1021 0
-538 -1022 0
-539 -1023 0
-540 -1024 0
-537 -1337 0
-538 -1338 0
-539 -1339 0
-540 -1340 0
-537 -1361 0
-538 -1362 0
-539 -1363 0
-540 -1364 0
-541 -701 0
-542 -702 0
-543 -703 0
-544 -704 0
-541 -733 0
-542 -734 0
-543 -735 0
-544 -736 0
-541 -965 0
-542 -966 0
-543 -967 0
-544 -968 0
-541 -1221 0
-542 -1222 0
-543 -1223 0
-544 -1224 0
-545 -689 0
-546 -690 0
-547 -691 0
-548 -692 0
-545 -705 0
-546 -706 0
-547 -707 0
-548 -708 0
-545 -929 0
-546 -930 0
-547 -931 0
-548 -932 0
-545 -997 0
-546 -998 0
-547 -999 0
-548 -1000 0
-545 -1217 0
-546 -1218 0
-547 -1219 0
-548 -1220 0
-549 -693 0
-550 -694 0
-551 -695 0
-552 -696 0
-549 -709 0
-550 -710 0
-551 -711 0
-552 -712 0
-549 -909 0
-550 -910 0
-551 -911 0
-552 -912 0
-549 -1001 0
-550 -1002 0
-551 -1003 0
-552 -1004 0
-549 -1341 0
-550 -1342 0
-551 -1343 0
-552 -1344 0
-549 -1365 0
-550 -1366 0
-551 -1367 0
-552 -1368 0
-553 -697 0
-554 -698 0
-555 -699 0
-556 -700 0
-553 -713 0
-554 -714 0
-555 -715 0
-556 -716 0
-553 -937 0
-554 -938 0
-555 -939 0
-556 -940 0
-553 -989 0
-554 -990 0
-555 -991 0
-556 -992 0
-553 -1345 0
-554 -1346 0
-555 -1347 0
-556 -1348 0
-557 -701 0
-558 -702 0
-559 -703 0
-560 -704 0
-557 -717 0
-558 -718 0
-559 -719 0
-560 -720 0
-557 -917 0
-558 -918 0
-559 -919 0
-560 -920 0
-557 -993 0
-558 -994 0
-559 -995 0
-560 -996 0
-557 -1229 0
-558 -1230 0
-559 -1231 0
-560 -1232 0
-561 -705 0
-562 -706 0
-563 -707 0
-564 -708 0
-561 -721 0
-562 -722 0
-563 -723 0
-564 -724 0
-561 -953 0
-562 -954 0
-563 -955 0
-564 -956 0
-561 -1013 0
-562 -1014 0
-563 -1015 0
-564 -1016 0
-561 -1225 0
-562 -1226 0
-563 -1227 0
-564 -1228 0
-565 -709 0
-566 -710 0
-567 -711 0
-568 -712 0
-565 -725 0
-566 -726 0
-567 -727 0
-568 -728 0
-565 -933 0
-566 -934 0
-567 -935 0
-568 -936 0
-565 -1017 0
-566 -1018 0
-567 -1019 0
-568 -1020 0
-565 -1349 0
-566 -1350 0
-567 -1351 0
-568 -1352 0
-569 -713 0
-570 -714 0
-571 -715 0
-572 -716 0
-569 -729 0
-570 -730 0
-571 -731 0
-572 -732 0
-569 -961 0
-570 -962 0
-571 -963 0
-572 -964 0
-569 -1005 0
-570 -1006 0
-571 -1007 0
-572 -1008 0
-569 -1353 0
-570 -1354 0
-571 -1355 0
-572 -1356 0
-569 -1369 0
-570 -1370 0
-571 -1371 0
-572 -1372 0
-573 -717 0
-574 -718 0
-575 -719 0
-576 -720 0
-573 -733 0
-574 -734 0
-575 -735 0
-576 -736 0
-573 -941 0
-574 -942 0
-575 -943 0
-576 -944 0
-573 -1009 0
-574 -1010 0
-575 -1011 0
-576 -1012 0
-573 -1237 0
-574 -1238 0
-575 -1239 0
-576 -1240 0
-577 -689 0
-578 -690 0
-579 -691 0
-580 -692 0
-577 -721 0
-578 -722 0
-579 -723 0
-580 -724 0
-577 -905 0
-578 -906 0
-579 -907 0
-580 -908 0
-577 -1233 0
-578 -1234 0
-579 -1235 0
-580 -1236 0
-581 -693 0
-582 -694 0
-583 -695 0
-584 -696 0
-581 -725 0
-582 -726 0
-583 -727 0
-584 -728 0
-581 -957 0
-582 -958 0
-583 -959 0
-584 -960 0
-581 -985 0
-582 -986 0
-583 -987 0
-584 -988 0
-581 -1357 0
-582 -1358 0
-583 -1359 0
-584 -1360 0
-581 -1373 0
-582 -1374 0
-583 -1375 0
-584 -1376 0
-585 -1029 0
-586 -1030 0
-587 -1031 0
-588 -1032 0
-585 -1141 0
-586 -1142 0
-587 -1143 0
-588 -1144 0
-589 -1041 0
-590 -1042 0
-591 -1043 0
-592 -1044 0
-589 -1097 0
-590 -1098 0
-591 -1099 0
-592 -1100 0
-593 -737 0
-594 -738 0
-595 -739 0
-596 -740 0
-593 -789 0
-594 -790 0
-595 -791 0
-596 -792 0
-593 -1053 0
-594 -1054 0
-595 -1055 0
-596 -1056 0
-593 -1185 0
-594 -1186 0
-595 -1187 0
-596 -1188 0
-593 -1333 0
-594 -1334 0
-595 -1335 0
-596 -1336 0
-593 -1425 0
-594 -1426 0
-595 -1427 0
-596 -1428 0
-597 -609 0
-598 -610 0
-599 -611 0
-600 -612 0
-597 -673 0
-598 -674 0
-599 -675 0
-600 -676 0
-597 -757 0
-598 -758 0
-599 -759 0
-600 -760 0
-597 -973 0
-598 -974 0
-599 -975 0
-600 -976 0
-597 -1093 0
-598 -1094 0
-599 -1095 0
-600 -1096 0
-597 -1249 0
-598 -1250 0
-599 -1251 0
-600 -1252 0
-597 -1309 0
-598 -1310 0
-599 -1311 0
-600 -1312 0
-597 -1373 0
-598 -1374 0
-599 -1375 0
-600 -1376 0
-597 -1389 0
-598 -1390 0
-599 -1391 0
-600 -1392 0
-597 -1393 0
-598 -1394 0
-599 -1395 0
-600 -1396 0
-597 -1429 0
-598 -1430 0
-599 -1431 0
-600 -1432 0
-601 -613 0
-602 -614 0
-603 -615 0
-604 -616 0
-601 -677 0
-602 -678 0
-603 -679 0
-604 -680 0
-601 -1057 0
-602 -1058 0
-603 -1059 0
-604 -1060 0
-601 -1189 0
-602 -1190 0
-603 -1191 0
-604 -1192 0
-601 -1241 0
-602 -1242 0
-603 -1243 0
-604 -1244 0
-601 -1253 0
-602 -1254 0
-603 -1255 0
-604 -1256 0
-601 -1361 0
-602 -1362 0
-603 -1363 0
-604 -1364 0
-601 -1393 0
-602 -1394 0
-603 -1395 0
-604 -1396 0
-605 -617 0
-606 -618 0
-607 -619 0
-608 -620 0
-605 -681 0
-606 -682 0
-607 -683 0
-608 -684 0
-605 -793 0
-606 -794 0
-607 -795 0
-608 -796 0
-605 -885 0
-606 -886 0
-607 -887 0
-608 -888 0
-605 -1061 0
-606 -1062 0
-607 -1063 0
-608 -1064 0
-605 -1145 0
-606 -1146 0
-607 -1147 0
-608 -1148 0
-605 -1153 0
-606 -1154 0
-607 -1155 0
-608 -1156 0
-605 -1245 0
-606 -1246 0
-607 -1247 0
-608 -1248 0
-605 -1257 0
-606 -1258 0
-607 -1259 0
-608 -1260 0
-605 -1313 0
-606 -1314 0
-607 -1315 0
-608 -1316 0
-605 -1377 0
-606 -1378 0
-607 -1379 0
-608 -1380 0
-605 -1433 0
-606 -1434 0
-607 -1435 0
-608 -1436 0
-609 -629 0
-610 -630 0
-611 -631 0
-612 -632 0
-609 -765 0
-610 -766 0
-611 -767 0
-612 -768 0
-609 -1049 0
-610 -1050 0
-611 -1051 0
-612 -1052 0
-609 -1149 0
-610 -1150 0
-611 -1151 0
-612 -1152 0
-609 -1157 0
-610 -1158 0
-611 -1159 0
-612 -1160 0
-609 -1249 0
-610 -1250 0
-611 -1251 0
-612 -1252 0
-609 -1261 0
-610 -1262 0
-611 -1263 0
-612 -1264 0
-609 -1317 0
-610 -1318 0
-611 -1319 0
-612 -1320 0
-609 -1377 0
-610 -1378 0
-611 -1379 0
-612 -1380 0
-609 -1437 0
-610 -1438 0
-611 -1439 0
-612 -1440 0
-613 -633 0
-614 -634 0
-615 -635 0
-616 -636 0
-613 -889 0
-614 -890 0
-615 -891 0
-616 -892 0
-613 -1053 0
-614 -1054 0
-615 -1055 0
-616 -1056 0
-613 -1161 0
-614 -1162 0
-615 -1163 0
-616 -1164 0
-613 -1253 0
-614 -1254 0
-615 -1255 0
-616 -1256 0
-613 -1265 0
-614 -1266 0
-615 -1267 0
-616 -1268 0
-613 -1365 0
-614 -1366 0
-615 -1367 0
-616 -1368 0
-613 -1397 0
-614 -1398 0
-615 -1399 0
-616 -1400 0
-617 -637 0
-618 -638 0
-619 -639 0
-620 -640 0
-617 -753 0
-618 -754 0
-619 -755 0
-620 -756 0
-617 -973 0
-618 -974 0
-619 -975 0
-620 -976 0
-617 -1065 0
-618 -1066 0
-619 -1067 0
-620 -1068 0
-617 -1257 0
-618 -1258 0
-619 -1259 0
-620 -1260 0
-617 -1269 0
-618 -1270 0
-619 -1271 0
-620 -1272 0
-617 -1397 0
-618 -1398 0
-619 -1399 0
-620 -1400 0
-617 -1441 0
-618 -1442 0
-619 -1443 0
-620 -1444 0
-621 -737 0
-622 -738 0
-623 -739 0
-624 -740 0
-621 -769 0
-622 -770 0
-623 -771 0
-624 -772 0
-621 -1057 0
-622 -1058 0
-623 -1059 0
-624 -1060 0
-621 -1165 0
-622 -1166 0
-623 -1167 0
-624 -1168 0
-621 -1321 0
-622 -1322 0
-623 -1323 0
-624 -1324 0
-621 -1401 0
-622 -1402 0
-623 -1403 0
-624 -1404 0
-625 -741 0
-626 -742 0
-627 -743 0
-628 -744 0
-625 -757 0
-626 -758 0
-627 -759 0
-628 -760 0
-625 -1069 0
-626 -1070 0
-627 -1071 0
-628 -1072 0
-625 -1153 0
-626 -1154 0
-627 -1155 0
-628 -1156 0
-625 -1317 0
-626 -1318 0
-627 -1319 0
-628 -1320 0
-629 -641 0
-630 -642 0
-631 -643 0
-632 -644 0
-629 -773 0
-630 -774 0
-631 -775 0
-632 -776 0
-629 -977 0
-630 -978 0
-631 -979 0
-632 -980 0
-629 -1061 0
-630 -1062 0
-631 -1063 0
-632 -1064 0
-629 -1261 0
-630 -1262 0
-631 -1263 0
-632 -1264 0
-629 -1273 0
-630 -1274 0
-631 -1275 0
-632 -1276 0
-629 -1365 0
-630 -1366 0
-631 -1367 0
-632 -1368 0
-629 -1401 0
-630 -1402 0
-631 -1403 0
-632 -1404 0
-629 -1405 0
-630 -1406 0
-631 -1407 0
-632 -1408 0
-629 -1445 0
-630 -1446 0
-631 -1447 0
-632 -1448 0
-633 -645 0
-634 -646 0
-635 -647 0
-636 -648 0
-633 -885 0
-634 -886 0
-635 -887 0
-636 -888 0
-633 -1073 0
-634 -1074 0
-635 -1075 0
-636 -1076 0
-633 -1157 0
-634 -1158 0
-635 -1159 0
-636 -1160 0
-633 -1265 0
-634 -1266 0
-635 -1267 0
-636 -1268 0
-633 -1277 0
-634 -1278 0
-635 -1279 0
-636 -1280 0
-633 -1405 0
-634 -1406 0
-635 -1407 0
-636 -1408 0
-637 -649 0
-638 -650 0
-639 -651 0
-640 -652 0
-637 -761 0
-638 -762 0
-639 -763 0
-640 -764 0
-637 -893 0
-638 -894 0
-639 -895 0
-640 -896 0
-637 -1077 0
-638 -1078 0
-639 -1079 0
-640 -1080 0
-637 -1161 0
-638 -1162 0
-639 -1163 0
-640 -1164 0
-637 -1169 0
-638 -1170 0
-639 -1171 0
-640 -1172 0
-637 -1269 0
-638 -1270 0
-639 -1271 0
-640 -1272 0
-637 -1281 0
-638 -1282 0
-639 -1283 0
-640 -1284 0
-637 -1321 0
-638 -1322 0
-639 -1323 0
-640 -1324 0
-637 -1381 0
-638 -1382 0
-639 -1383 0
-640 -1384 0
-637 -1449 0
-638 -1450 0
-639 -1451 0
-640 -1452 0
-641 -661 0
-642 -662 0
-643 -663 0
-644 -664 0
-641 -781 0
-642 -782 0
-643 -783 0
-644 -784 0
-641 -889 0
-642 -890 0
-643 -891 0
-644 -892 0
-641 -1065 0
-642 -1066 0
-643 -1067 0
-644 -1068 0
-641 -1165 0
-642 -1166 0
-643 -1167 0
-644 -1168 0
-641 -1173 0
-642 -1174 0
-643 -1175 0
-644 -1176 0
-641 -1273 0
-642 -1274 0
-643 -1275 0
-644 -1276 0
-641 -1285 0
-642 -1286 0
-643 -1287 0
-644 -1288 0
-641 -1325 0
-642 -1326 0
-643 -1327 0
-644 -1328 0
-641 -1381 0
-642 -1382 0
-643 -1383 0
-644 -1384 0
-641 -1453 0
-642 -1454 0
-643 -1455 0
-644 -1456 0
-645 -665 0
-646 -666 0
-647 -667 0
-648 -668 0
-645 -897 0
-646 -898 0
-647 -899 0
-648 -900 0
-645 -1069 0
-646 -1070 0
-647 -1071 0
-648 -1072 0
-645 -1177 0
-646 -1178 0
-647 -1179 0
-648 -1180 0
-645 -1277 0
-646 -1278 0
-647 -1279 0
-648 -1280 0
-645 -1289 0
-646 -1290 0
-647 -1291 0
-648 -1292 0
-645 -1409 0
-646 -1410 0
-647 -1411 0
-648 -1412 0
-649 -669 0
-650 -670 0
-651 -671 0
-652 -672 0
-649 -769 0
-650 -770 0
-651 -771 0
-652 -772 0
-649 -977 0
-650 -978 0
-651 -979 0
-652 -980 0
-649 -1081 0
-650 -1082 0
-651 -1083 0
-652 -1084 0
-649 -1281 0
-650 -1282 0
-651 -1283 0
-652 -1284 0
-649 -1293 0
-650 -1294 0
-651 -1295 0
-652 -1296 0
-649 -1369 0
-650 -1370 0
-651 -1371 0
-652 -1372 0
-649 -1409 0
-650 -1410 0
-651 -1411 0
-652 -1412 0
-649 -1413 0
-650 -1414 0
-651 -1415 0
-652 -1416 0
-649 -1457 0
-650 -1458 0
-651 -1459 0
-652 -1460 0
-653 -741 0
-654 -742 0
-655 -743 0
-656 -744 0
-653 -785 0
-654 -786 0
-655 -787 0
-656 -788 0
-653 -1073 0
-654 -1074 0
-655 -1075 0
-656 -1076 0
-653 -1181 0
-654 -1182 0
-655 -1183 0
-656 -1184 0
-653 -1329 0
-654 -1330 0
-655 -1331 0
-656 -1332 0
-657 -745 0
-658 -746 0
-659 -747 0
-660 -748 0
-657 -773 0
-658 -774 0
-659 -775 0
-660 -776 0
-657 -1085 0
-658 -1086 0
-659 -1087 0
-660 -1088 0
-657 -1169 0
-658 -1170 0
-659 -1171 0
-660 -1172 0
-657 -1325 0
-658 -1326 0
-659 -1327 0
-660 -1328 0
-657 -1413 0
-658 -1414 0
-659 -1415 0
-660 -1416 0
-661 -673 0
-662 -674 0
-663 -675 0
-664 -676 0
-661 -789 0
-662 -790 0
-663 -791 0
-664 -792 0
-661 -981 0
-662 -982 0
-663 -983 0
-664 -984 0
-661 -1077 0
-662 -1078 0
-663 -1079 0
-664 -1080 0
-661 -1285 0
-662 -1286 0
-663 -1287 0
-664 -1288 0
-661 -1297 0
-662 -1298 0
-663 -1299 0
-664 -1300 0
-661 -1417 0
-662 -1418 0
-663 -1419 0
-664 -1420 0
-661 -1461 0
-662 -1462 0
-663 -1463 0
-664 -1464 0
-665 -677 0
-666 -678 0
-667 -679 0
-668 -680 0
-665 -893 0
-666 -894 0
-667 -895 0
-668 -896 0
-665 -1089 0
-666 -1090 0
-667 -1091 0
-668 -1092 0
-665 -1173 0
-666 -1174 0
-667 -1175 0
-668 -1176 0
-665 -1289 0
-666 -1290 0
-667 -1291 0
-668 -1292 0
-665 -1301 0
-666 -1302 0
-667 -1303 0
-668 -1304 0
-665 -1369 0
-666 -1370 0
-667 -1371 0
-668 -1372 0
-665 -1417 0
-666 -1418 0
-667 -1419 0
-668 -1420 0
-669 -681 0
-670 -682 0
-671 -683 0
-672 -684 0
-669 -777 0
-670 -778 0
-671 -779 0
-672 -780 0
-669 -1093 0
-670 -1094 0
-671 -1095 0
-672 -1096 0
-669 -1177 0
-670 -1178 0
-671 -1179 0
-672 -1180 0
-669 -1185 0
-670 -1186 0
-671 -1187 0
-672 -1188 0
-669 -1293 0
-670 -1294 0
-671 -1295 0
-672 -1296 0
-669 -1305 0
-670 -1306 0
-671 -1307 0
-672 -1308 0
-669 -1329 0
-670 -1330 0
-671 -1331 0
-672 -1332 0
-669 -1385 0
-670 -1386 0
-671 -1387 0
-672 -1388 0
-669 -1465 0
-670 -1466 0
-671 -1467 0
-672 -1468 0
-673 -749 0
-674 -750 0
-675 -751 0
-676 -752 0
-673 -897 0
-674 -898 0
-675 -899 0
-676 -900 0
-673 -1081 0
-674 -1082 0
-675 -1083 0
-676 -1084 0
-673 -1181 0
-674 -1182 0
-675 -1183 0
-676 -1184 0
-673 -1189 0
-674 -1190 0
-675 -1191 0
-676 -1192 0
-673 -1297 0
-674 -1298 0
-675 -1299 0
-676 -1300 0
-673 -1309 0
-674 -1310 0
-675 -1311 0
-676 -1312 0
-673 -1333 0
-674 -1334 0
-675 -1335 0
-676 -1336 0
-673 -1385 0
-674 -1386 0
-675 -1387 0
-676 -1388 0
-673 -1469 0
-674 -1470 0
-675 -1471 0
-676 -1472 0
-677 -1085 0
-678 -1086 0
-679 -1087 0
-680 -1088 0
-677 -1145 0
-678 -1146 0
-679 -1147 0
-680 -1148 0
-677 -1241 0
-678 -1242 0
-679 -1243 0
-680 -1244 0
-677 -1301 0
-678 -1302 0
-679 -1303 0
-680 -1304 0
-677 -1373 0
-678 -1374 0
-679 -1375 0
-680 -1376 0
-677 -1421 0
-678 -1422 0
-679 -1423 0
-680 -1424 0
-681 -785 0
-682 -786 0
-683 -787 0
-684 -788 0
-681 -981 0
-682 -982 0
-683 -983 0
-684 -984 0
-681 -1049 0
-682 -1050 0
-683 -1051 0
-684 -1052 0
-681 -1245 0
-682 -1246 0
-683 -1247 0
-684 -1248 0
-681 -1305 0
-682 -1306 0
-683 -1307 0
-684 -1308 0
-681 -1361 0
-682 -1362 0
-683 -1363 0
-684 -1364 0
-681 -1421 0
-682 -1422 0
-683 -1423 0
-684 -1424 0
-681 -1425 0
-682 -1426 0
-683 -1427 0
-684 -1428 0
-681 -1473 0
-682 -1474 0
-683 -1475 0
-684 -1476 0
-685 -745 0
-686 -746 0
-687 -747 0
-688 -748 0
-685 -753 0
-686 -754 0
-687 -755 0
-688 -756 0
-685 -1089 0
-686 -1090 0
-687 -1091 0
-688 -1092 0
-685 -1149 0
-686 -1150 0
-687 -1151 0
-688 -1152 0
-685 -1313 0
-686 -1314 0
-687 -1315 0
-688 -1316 0
-685 -1389 0
-686 -1390 0
-687 -1391 0
-688 -1392 0
-689 -1021 0
-690 -1022 0
-691 -1023 0
-692 -1024 0
-689 -1141 0
-690 -1142 0
-691 -1143 0
-692 -1144 0
-689 -1217 0
-690 -1218 0
-691 -1219 0
-692 -1220 0
-689 -1389 0
-690 -1390 0
-691 -1391 0
-692 -1392 0
-693 -1105 0
-694 -1106 0
-695 -1107 0
-696 -1108 0
-693 -1393 0
-694 -1394 0
-695 -1395 0
-696 -1396 0
-697 -997 0
-698 -998 0
-699 -999 0
-700 -1000 0
-697 -1101 0
-698 -1102 0
-699 -1103 0
-700 -1104 0
-697 -1397 0
-698 -1398 0
-699 -1399 0
-700 -1400 0
-701 -869 0
-702 -870 0
-703 -871 0
-704 -872 0
-701 -1001 0
-702 -1002 0
-703 -1003 0
-704 -1004 0
-701 -1113 0
-702 -1114 0
-703 -1115 0
-704 -1116 0
-701 -1221 0
-702 -1222 0
-703 -1223 0
-704 -1224 0
-705 -877 0
-706 -878 0
-707 -879 0
-708 -880 0
-705 -989 0
-706 -990 0
-707 -991 0
-708 -992 0
-705 -1109 0
-706 -1110 0
-707 -1111 0
-708 -1112 0
-705 -1225 0
-706 -1226 0
-707 -1227 0
-708 -1228 0
-705 -1401 0
-706 -1402 0
-707 -1403 0
-708 -1404 0
-709 -993 0
-710 -994 0
-711 -995 0
-712 -996 0
-709 -1121 0
-710 -1122 0
-711 -1123 0
-712 -1124 0
-709 -1405 0
-710 -1406 0
-711 -1407 0
-712 -1408 0
-709 -1477 0
-710 -1478 0
-711 -1479 0
-712 -1480 0
-713 -1013 0
-714 -1014 0
-715 -1015 0
-716 -1016 0
-713 -1117 0
-714 -1118 0
-715 -1119 0
-716 -1120 0
-713 -1409 0
-714 -1410 0
-715 -1411 0
-716 -1412 0
-713 -1481 0
-714 -1482 0
-715 -1483 0
-716 -1484 0
-717 -873 0
-718 -874 0
-719 -875 0
-720 -876 0
-717 -1017 0
-718 -1018 0
-719 -1019 0
-720 -1020 0
-717 -1129 0
-718 -1130 0
-719 -1131 0
-720 -1132 0
-717 -1229 0
-718 -1230 0
-719 -1231 0
-720 -1232 0
-717 -1413 0
-718 -1414 0
-719 -1415 0
-720 -1416 0
-721 -881 0
-722 -882 0
-723 -883 0
-724 -884 0
-721 -1005 0
-722 -1006 0
-723 -1007 0
-724 -1008 0
-721 -1125 0
-722 -1126 0
-723 -1127 0
-724 -1128 0
-721 -1233 0
-722 -1234 0
-723 -1235 0
-724 -1236 0
-725 -1009 0
-726 -1010 0
-727 -1011 0
-728 -1012 0
-725 -1137 0
-726 -1138 0
-727 -1139 0
-728 -1140 0
-725 -1417 0
-726 -1418 0
-727 -1419 0
-728 -1420 0
-729 -1133 0
-730 -1134 0
-731 -1135 0
-732 -1136 0
-729 -1421 0
-730 -1422 0
-731 -1423 0
-732 -1424 0
-733 -985 0
-734 -986 0
-735 -987 0
-736 -988 0
-733 -1097 0
-734 -1098 0
-735 -1099 0
-736 -1100 0
-733 -1237 0
-734 -1238 0
-735 -1239 0
-736 -1240 0
-733 -1425 0
-734 -1426 0
-735 -1427 0
-736 -1428 0
-749 -809 0
-750 -810 0
-751 -811 0
-752 -812 0
-749 -861 0
-750 -862 0
-751 -863 0
-752 -864 0
-749 -1333 0
-750 -1334 0
-751 -1335 0
-752 -1336 0
-753 -797 0
-754 -798 0
-755 -799 0
-756 -800 0
-753 -817 0
-754 -818 0
-755 -819 0
-756 -820 0
-753 -989 0
-754 -990 0
-755 -991 0
-756 -992 0
-753 -1197 0
-754 -1198 0
-755 -1199 0
-756 -1200 0
-753 -1313 0
-754 -1314 0
-755 -1315 0
-756 -1316 0
-757 -801 0
-758 -802 0
-759 -803 0
-760 -804 0
-757 -821 0
-758 -822 0
-759 -823 0
-760 -824 0
-757 -985 0
-758 -986 0
-759 -987 0
-760 -988 0
-757 -993 0
-758 -994 0
-759 -995 0
-760 -996 0
-757 -1193 0
-758 -1194 0
-759 -1195 0
-760 -1196 0
-757 -1317 0
-758 -1318 0
-759 -1319 0
-760 -1320 0
-761 -809 0
-762 -810 0
-763 -811 0
-764 -812 0
-761 -829 0
-762 -830 0
-763 -831 0
-764 -832 0
-761 -1321 0
-762 -1322 0
-763 -1323 0
-764 -1324 0
-765 -813 0
-766 -814 0
-767 -815 0
-768 -816 0
-765 -833 0
-766 -834 0
-767 -835 0
-768 -836 0
-765 -1317 0
-766 -1318 0
-767 -1319 0
-768 -1320 0
-769 -821 0
-770 -822 0
-771 -823 0
-772 -824 0
-769 -841 0
-770 -842 0
-771 -843 0
-772 -844 0
-769 -997 0
-770 -998 0
-771 -999 0
-772 -1000 0
-769 -1005 0
-770 -1006 0
-771 -1007 0
-772 -1008 0
-769 -1205 0
-770 -1206 0
-771 -1207 0
-772 -1208 0
-769 -1321 0
-770 -1322 0
-771 -1323 0
-772 -1324 0
-769 -1481 0
-770 -1482 0
-771 -1483 0
-772 -1484 0
-773 -825 0
-774 -826 0
-775 -827 0
-776 -828 0
-773 -845 0
-774 -846 0
-775 -847 0
-776 -848 0
-773 -1001 0
-774 -1002 0
-775 -1003 0
-776 -1004 0
-773 -1009 0
-774 -1010 0
-775 -1011 0
-776 -1012 0
-773 -1201 0
-774 -1202 0
-775 -1203 0
-776 -1204 0
-773 -1325 0
-774 -1326 0
-775 -1327 0
-776 -1328 0
-773 -1477 0
-774 -1478 0
-775 -1479 0
-776 -1480 0
-777 -833 0
-778 -834 0
-779 -835 0
-780 -836 0
-777 -853 0
-778 -854 0
-779 -855 0
-780 -856 0
-777 -1329 0
-778 -1330 0
-779 -1331 0
-780 -1332 0
-781 -837 0
-782 -838 0
-783 -839 0
-784 -840 0
-781 -857 0
-782 -858 0
-783 -859 0
-784 -860 0
-781 -1325 0
-782 -1326 0
-783 -1327 0
-784 -1328 0
-785 -845 0
-786 -846 0
-787 -847 0
-788 -848 0
-785 -865 0
-786 -866 0
-787 -867 0
-788 -868 0
-785 -1013 0
-786 -1014 0
-787 -1015 0
-788 -1016 0
-785 -1021 0
-786 -1022 0
-787 -1023 0
-788 -1024 0
-785 -1213 0
-786 -1214 0
-787 -1215 0
-788 -1216 0
-785 -1329 0
-786 -1330 0
-787 -1331 0
-788 -1332 0
-789 -797 0
-790 -798 0
-791 -799 0
-792 -800 0
-789 -849 0
-790 -850 0
-791 -851 0
-792 -852 0
-789 -1017 0
-790 -1018 0
-791 -1019 0
-792 -1020 0
-789 -1209 0
-790 -1210 0
-791 -1211 0
-792 -1212 0
-789 -1333 0
-790 -1334 0
-791 -1335 0
-792 -1336 0
-793 -805 0
-794 -806 0
-795 -807 0
-796 -808 0
-793 -857 0
-794 -858 0
-795 -859 0
-796 -860 0
-793 -1313 0
-794 -1314 0
-795 -1315 0
-796 -1316 0
-797 -909 0
-798 -910 0
-799 -911 0
-800 -912 0
-797 -961 0
-798 -962 0
-799 -963 0
-800 -964 0
-797 -1101 0
-798 -1102 0
-799 -1103 0
-800 -1104 0
-797 -1137 0
-798 -1138 0
-799 -1139 0
-800 -1140 0
-797 -1393 0
-798 -1394 0
-799 -1395 0
-800 -1396 0
-797 -1421 0
-798 -1422 0
-799 -1423 0
-800 -1424 0
-801 -1309 0
-802 -1310 0
-803 -1311 0
-804 -1312 0
-801 -1425 0
-802 -1426 0
-803 -1427 0
-804 -1428 0
-805 -969 0
-806 -970 0
-807 -971 0
-808 -972 0
-805 -1257 0
-806 -1258 0
-807 -1259 0
-808 -1260 0
-805 -1393 0
-806 -1394 0
-807 -1395 0
-808 -1396 0
-809 -905 0
-810 -906 0
-811 -907 0
-812 -908 0
-809 -917 0
-810 -918 0
-811 -919 0
-812 -920 0
-809 -1097 0
-810 -1098 0
-811 -1099 0
-812 -1100 0
-809 -1109 0
-810 -1110 0
-811 -1111 0
-812 -1112 0
-813 -925 0
-814 -926 0
-815 -927 0
-816 -928 0
-813 -1249 0
-814 -1250 0
-815 -1251 0
-816 -1252 0
-813 -1397 0
-814 -1398 0
-815 -1399 0
-816 -1400 0
-817 -1269 0
-818 -1270 0
-819 -1271 0
-820 -1272 0
-817 -1401 0
-818 -1402 0
-819 -1403 0
-820 -1404 0
-821 -913 0
-822 -914 0
-823 -915 0
-824 -916 0
-821 -933 0
-822 -934 0
-823 -935 0
-824 -936 0
-821 -1105 0
-822 -1106 0
-823 -1107 0
-824 -1108 0
-821 -1117 0
-822 -1118 0
-823 -1119 0
-824 -1120 0
-821 -1397 0
-822 -1398 0
-823 -1399 0
-824 -1400 0
-821 -1405 0
-822 -1406 0
-823 -1407 0
-824 -1408 0
-825 -1261 0
-826 -1262 0
-827 -1263 0
-828 -1264 0
-829 -921 0
-830 -922 0
-831 -923 0
-832 -924 0
-829 -1281 0
-830 -1282 0
-831 -1283 0
-832 -1284 0
-829 -1405 0
-830 -1406 0
-831 -1407 0
-832 -1408 0
-833 -929 0
-834 -930 0
-835 -931 0
-836 -932 0
-833 -941 0
-834 -942 0
-835 -943 0
-836 -944 0
-833 -1113 0
-834 -1114 0
-835 -1115 0
-836 -1116 0
-833 -1125 0
-834 -1126 0
-835 -1127 0
-836 -1128 0
-837 -949 0
-838 -950 0
-839 -951 0
-840 -952 0
-837 -1273 0
-838 -1274 0
-839 -1275 0
-840 -1276 0
-837 -1409 0
-838 -1410 0
-839 -1411 0
-840 -1412 0
-841 -1293 0
-842 -1294 0
-843 -1295 0
-844 -1296 0
-845 -937 0
-846 -938 0
-847 -939 0
-848 -940 0
-845 -957 0
-846 -958 0
-847 -959 0
-848 -960 0
-845 -1121 0
-846 -1122 0
-847 -1123 0
-848 -1124 0
-845 -1133 0
-846 -1134 0
-847 -1135 0
-848 -1136 0
-845 -1409 0
-846 -1410 0
-847 -1411 0
-848 -1412 0
-845 -1417 0
-846 -1418 0
-847 -1419 0
-848 -1420 0
-849 -1285 0
-850 -1286 0
-851 -1287 0
-852 -1288 0
-849 -1413 0
-850 -1414 0
-851 -1415 0
-852 -1416 0
-853 -945 0
-854 -946 0
-855 -947 0
-856 -948 0
-853 -1305 0
-854 -1306 0
-855 -1307 0
-856 -1308 0
-853 -1417 0
-854 -1418 0
-855 -1419 0
-856 -1420 0
-857 -953 0
-858 -954 0
-859 -955 0
-860 -956 0
-857 -965 0
-858 -966 0
-859 -967 0
-860 -968 0
-857 -1129 0
-858 -1130 0
-859 -1131 0
-860 -1132 0
-857 -1141 0
-858 -1142 0
-859 -1143 0
-860 -1144 0
-861 -901 0
-862 -902 0
-863 -903 0
-864 -904 0
-861 -1297 0
-862 -1298 0
-863 -1299 0
-864 -1300 0
-861 -1421 0
-862 -1422 0
-863 -1423 0
-864 -1424 0
-865 -1245 0
-866 -1246 0
-867 -1247 0
-868 -1248 0
-865 -1389 0
-866 -1390 0
-867 -1391 0
-868 -1392 0
-869 -1153 0
-870 -1154 0
-871 -1155 0
-872 -1156 0
-873 -1169 0
-874 -1170 0
-875 -1171 0
-876 -1172 0
-877 -1165 0
-878 -1166 0
-879 -1167 0
-880 -1168 0
-881 -1181 0
-882 -1182 0
-883 -1183 0
-884 -1184 0
-885 -1025 0
-886 -1026 0
-887 -1027 0
-888 -1028 0
-885 -1113 0
-886 -1114 0
-887 -1115 0
-888 -1116 0
-889 -1037 0
-890 -1038 0
-891 -1039 0
-892 -1040 0
-889 -1109 0
-890 -1110 0
-891 -1111 0
-892 -1112 0
-889 -1365 0
-890 -1366 0
-891 -1367 0
-892 -1368 0
-893 -1033 0
-894 -1034 0
-895 -1035 0
-896 -1036 0
-893 -1129 0
-894 -1130 0
-895 -1131 0
-896 -1132 0
-893 -1369 0
-894 -1370 0
-895 -1371 0
-896 -1372 0
-897 -1045 0
-898 -1046 0
-899 -1047 0
-900 -1048 0
-897 -1125 0
-898 -1126 0
-899 -1127 0
-900 -1128 0
-901 -1053 0
-902 -1054 0
-903 -1055 0
-904 -1056 0
-901 -1185 0
-902 -1186 0
-903 -1187 0
-904 -1188 0
-901 -1421 0
-902 -1422 0
-903 -1423 0
-904 -1424 0
-905 -1025 0
-906 -1026 0
-907 -1027 0
-908 -1028 0
-905 -1093 0
-906 -1094 0
-907 -1095 0
-908 -1096 0
-905 -1473 0
-906 -1474 0
-907 -1475 0
-908 -1476 0
-909 -1061 0
-910 -1062 0
-911 -1063 0
-912 -1064 0
-909 -1145 0
-910 -1146 0
-911 -1147 0
-912 -1148 0
-909 -1341 0
-910 -1342 0
-911 -1343 0
-912 -1344 0
-909 -1393 0
-910 -1394 0
-911 -1395 0
-912 -1396 0
-909 -1437 0
-910 -1438 0
-911 -1439 0
-912 -1440 0
-913 -1049 0
-914 -1050 0
-915 -1051 0
-916 -1052 0
-913 -1157 0
-914 -1158 0
-915 -1159 0
-916 -1160 0
-913 -1337 0
-914 -1338 0
-915 -1339 0
-916 -1340 0
-913 -1397 0
-914 -1398 0
-915 -1399 0
-916 -1400 0
-913 -1433 0
-914 -1434 0
-915 -1435 0
-916 -1436 0
-917 -1029 0
-918 -1030 0
-919 -1031 0
-920 -1032 0
-917 -1065 0
-918 -1066 0
-919 -1067 0
-920 -1068 0
-917 -1445 0
-918 -1446 0
-919 -1447 0
-920 -1448 0
-921 -1057 0
-922 -1058 0
-923 -1059 0
-924 -1060 0
-921 -1165 0
-922 -1166 0
-923 -1167 0
-924 -1168 0
-921 -1405 0
-922 -1406 0
-923 -1407 0
-924 -1408 0
-925 -1069 0
-926 -1070 0
-927 -1071 0
-928 -1072 0
-925 -1153 0
-926 -1154 0
-927 -1155 0
-928 -1156 0
-925 -1397 0
-926 -1398 0
-927 -1399 0
-928 -1400 0
-929 -1033 0
-930 -1034 0
-931 -1035 0
-932 -1036 0
-929 -1061 0
-930 -1062 0
-931 -1063 0
-932 -1064 0
-929 -1441 0
-930 -1442 0
-931 -1443 0
-932 -1444 0
-933 -1077 0
-934 -1078 0
-935 -1079 0
-936 -1080 0
-933 -1161 0
-934 -1162 0
-935 -1163 0
-936 -1164 0
-933 -1349 0
-934 -1350 0
-935 -1351 0
-936 -1352 0
-933 -1405 0
-934 -1406 0
-935 -1407 0
-936 -1408 0
-933 -1453 0
-934 -1454 0
-935 -1455 0
-936 -1456 0
-937 -1065 0
-938 -1066 0
-939 -1067 0
-940 -1068 0
-937 -1173 0
-938 -1174 0
-939 -1175 0
-940 -1176 0
-937 -1345 0
-938 -1346 0
-939 -1347 0
-940 -1348 0
-937 -1409 0
-938 -1410 0
-939 -1411 0
-940 -1412 0
-937 -1449 0
-938 -1450 0
-939 -1451 0
-940 -1452 0
-941 -1037 0
-942 -1038 0
-943 -1039 0
-944 -1040 0
-941 -1081 0
-942 -1082 0
-943 -1083 0
-944 -1084 0
-941 -1461 0
-942 -1462 0
-943 -1463 0
-944 -1464 0
-945 -1073 0
-946 -1074 0
-947 -1075 0
-948 -1076 0
-945 -1181 0
-946 -1182 0
-947 -1183 0
-948 -1184 0
-945 -1417 0
-946 -1418 0
-947 -1419 0
-948 -1420 0
-949 -1085 0
-950 -1086 0
-951 -1087 0
-952 -1088 0
-949 -1169 0
-950 -1170 0
-951 -1171 0
-952 -1172 0
-949 -1409 0
-950 -1410 0
-951 -1411 0
-952 -1412 0
-953 -1041 0
-954 -1042 0
-955 -1043 0
-956 -1044 0
-953 -1077 0
-954 -1078 0
-955 -1079 0
-956 -1080 0
-953 -1457 0
-954 -1458 0
-955 -1459 0
-956 -1460 0
-957 -1093 0
-958 -1094 0
-959 -1095 0
-960 -1096 0
-957 -1177 0
-958 -1178 0
-959 -1179 0
-960 -1180 0
-957 -1357 0
-958 -1358 0
-959 -1359 0
-960 -1360 0
-957 -1417 0
-958 -1418 0
-959 -1419 0
-960 -1420 0
-957 -1469 0
-958 -1470 0
-959 -1471 0
-960 -1472 0
-961 -1081 0
-962 -1082 0
-963 -1083 0
-964 -1084 0
-961 -1189 0
-962 -1190 0
-963 -1191 0
-964 -1192 0
-961 -1353 0
-962 -1354 0
-963 -1355 0
-964 -1356 0
-961 -1421 0
-962 -1422 0
-963 -1423 0
-964 -1424 0
-961 -1465 0
-962 -1466 0
-963 -1467 0
-964 -1468 0
-965 -1045 0
-966 -1046 0
-967 -1047 0
-968 -1048 0
-965 -1049 0
-966 -1050 0
-967 -1051 0
-968 -1052 0
-965 -1429 0
-966 -1430 0
-967 -1431 0
-968 -1432 0
-969 -1089 0
-970 -1090 0
-971 -1091 0
-972 -1092 0
-969 -1149 0
-970 -1150 0
-971 -1151 0
-972 -1152 0
-969 -1393 0
-970 -1394 0
-971 -1395 0
-972 -1396 0
-973 -1905 0
-974 -1906 0
-975 -1907 0
-976 -1908 0
-977 -1913 0
-978 -1914 0
-979 -1915 0
-980 -1916 0
-981 -1921 0
-982 -1922 0
-983 -1923 0
-984 -1924 0
-985 -1029 0
-986 -1030 0
-987 -1031 0
-988 -1032 0
-985 -1373 0
-986 -1374 0
-987 -1375 0
-988 -1376 0
-985 -1425 0
-986 -1426 0
-987 -1427 0
-988 -1428 0
-989 -1025 0
-990 -1026 0
-991 -1027 0
-992 -1028 0
-989 -1401 0
-990 -1402 0
-991 -1403 0
-992 -1404 0
-993 -1201 0
-994 -1202 0
-995 -1203 0
-996 -1204 0
-993 -1341 0
-994 -1342 0
-995 -1343 0
-996 -1344 0
-993 -1405 0
-994 -1406 0
-995 -1407 0
-996 -1408 0
-997 -1197 0
-998 -1198 0
-999 -1199 0
-1000 -1200 0
-997 -1345 0
-998 -1346 0
-999 -1347 0
-1000 -1348 0
-997 -1397 0
-998 -1398 0
-999 -1399 0
-1000 -1400 0
-1001 -1037 0
-1002 -1038 0
-1003 -1039 0
-1004 -1040 0
-1001 -1365 0
-1002 -1366 0
-1003 -1367 0
-1004 -1368 0
-1001 -1477 0
-1002 -1478 0
-1003 -1479 0
-1004 -1480 0
-1005 -1033 0
-1006 -1034 0
-1007 -1035 0
-1008 -1036 0
-1005 -1369 0
-1006 -1370 0
-1007 -1371 0
-1008 -1372 0
-1005 -1481 0
-1006 -1482 0
-1007 -1483 0
-1008 -1484 0
-1009 -1209 0
-1010 -1210 0
-1011 -1211 0
-1012 -1212 0
-1009 -1349 0
-1010 -1350 0
-1011 -1351 0
-1012 -1352 0
-1009 -1417 0
-1010 -1418 0
-1011 -1419 0
-1012 -1420 0
-1013 -1205 0
-1014 -1206 0
-1015 -1207 0
-1016 -1208 0
-1013 -1353 0
-1014 -1354 0
-1015 -1355 0
-1016 -1356 0
-1013 -1409 0
-1014 -1410 0
-1015 -1411 0
-1016 -1412 0
-1017 -1045 0
-1018 -1046 0
-1019 -1047 0
-1020 -1048 0
-1017 -1413 0
-1018 -1414 0
-1019 -1415 0
-1020 -1416 0
-1021 -1041 0
-1022 -1042 0
-1023 -1043 0
-1024 -1044 0
-1021 -1361 0
-1022 -1362 0
-1023 -1363 0
-1024 -1364 0
-1021 -1389 0
-1022 -1390 0
-1023 -1391 0
-1024 -1392 0
-1025 -1313 0
-1026 -1314 0
-1027 -1315 0
-1028 -1316 0
-1029 -1317 0
-1030 -1318 0
-1031 -1319 0
-1032 -1320 0
-1033 -1321 0
-1034 -1322 0
-1035 -1323 0
-1036 -1324 0
-1037 -1325 0
-1038 -1326 0
-1039 -1327 0
-1040 -1328 0
-1041 -1329 0
-1042 -1330 0
-1043 -1331 0
-1044 -1332 0
-1045 -1333 0
-1046 -1334 0
-1047 -1335 0
-1048 -1336 0
-1049 -1189 0
-1050 -1190 0
-1051 -1191 0
-1052 -1192 0
-1049 -1221 0
-1050 -1222 0
-1051 -1223 0
-1052 -1224 0
-1049 -1377 0
-1050 -1378 0
-1051 -1379 0
-1052 -1380 0
-1053 -1145 0
-1054 -1146 0
-1055 -1147 0
-1056 -1148 0
-1053 -1153 0
-1054 -1154 0
-1055 -1155 0
-1056 -1156 0
-1053 -1341 0
-1054 -1342 0
-1055 -1343 0
-1056 -1344 0
-1057 -1149 0
-1058 -1150 0
-1059 -1151 0
-1060 -1152 0
-1057 -1157 0
-1058 -1158 0
-1059 -1159 0
-1060 -1160 0
-1057 -1337 0
-1058 -1338 0
-1059 -1339 0
-1060 -1340 0
-1061 -1161 0
-1062 -1162 0
-1063 -1163 0
-1064 -1164 0
-1061 -1217 0
-1062 -1218 0
-1063 -1219 0
-1064 -1220 0
-1061 -1377 0
-1062 -1378 0
-1063 -1379 0
-1064 -1380 0
-1065 -1157 0
-1066 -1158 0
-1067 -1159 0
-1068 -1160 0
-1065 -1229 0
-1066 -1230 0
-1067 -1231 0
-1068 -1232 0
-1065 -1381 0
-1066 -1382 0
-1067 -1383 0
-1068 -1384 0
-1069 -1161 0
-1070 -1162 0
-1071 -1163 0
-1072 -1164 0
-1069 -1169 0
-1070 -1170 0
-1071 -1171 0
-1072 -1172 0
-1069 -1349 0
-1070 -1350 0
-1071 -1351 0
-1072 -1352 0
-1073 -1165 0
-1074 -1166 0
-1075 -1167 0
-1076 -1168 0
-1073 -1173 0
-1074 -1174 0
-1075 -1175 0
-1076 -1176 0
-1073 -1345 0
-1074 -1346 0
-1075 -1347 0
-1076 -1348 0
-1077 -1177 0
-1078 -1178 0
-1079 -1179 0
-1080 -1180 0
-1077 -1225 0
-1078 -1226 0
-1079 -1227 0
-1080 -1228 0
-1077 -1381 0
-1078 -1382 0
-1079 -1383 0
-1080 -1384 0
-1081 -1173 0
-1082 -1174 0
-1083 -1175 0
-1084 -1176 0
-1081 -1237 0
-1082 -1238 0
-1083 -1239 0
-1084 -1240 0
-1081 -1385 0
-1082 -1386 0
-1083 -1387 0
-1084 -1388 0
-1085 -1177 0
-1086 -1178 0
-1087 -1179 0
-1088 -1180 0
-1085 -1185 0
-1086 -1186 0
-1087 -1187 0
-1088 -1188 0
-1085 -1357 0
-1086 -1358 0
-1087 -1359 0
-1088 -1360 0
-1089 -1181 0
-1090 -1182 0
-1091 -1183 0
-1092 -1184 0
-1089 -1189 0
-1090 -1190 0
-1091 -1191 0
-1092 -1192 0
-1089 -1353 0
-1090 -1354 0
-1091 -1355 0
-1092 -1356 0
-1093 -1145 0
-1094 -1146 0
-1095 -1147 0
-1096 -1148 0
-1093 -1233 0
-1094 -1234 0
-1095 -1235 0
-1096 -1236 0
-1093 -1385 0
-1094 -1386 0
-1095 -1387 0
-1096 -1388 0
-1097 -1141 0
-1098 -1142 0
-1099 -1143 0
-1100 -1144 0
-1097 -1217 0
-1098 -1218 0
-1099 -1219 0
-1100 -1220 0
-1101 -1105 0
-1102 -1106 0
-1103 -1107 0
-1104 -1108 0
-1101 -1361 0
-1102 -1362 0
-1103 -1363 0
-1104 -1364 0
-1105 -1365 0
-1106 -1366 0
-1107 -1367 0
-1108 -1368 0
-1109 -1113 0
-1110 -1114 0
-1111 -1115 0
-1112 -1116 0
-1109 -1221 0
-1110 -1222 0
-1111 -1223 0
-1112 -1224 0
-1113 -1225 0
-1114 -1226 0
-1115 -1227 0
-1116 -1228 0
-1117 -1121 0
-1118 -1122 0
-1119 -1123 0
-1120 -1124 0
-1117 -1481 0
-1118 -1482 0
-1119 -1483 0
-1120 -1484 0
-1121 -1477 0
-1122 -1478 0
-1123 -1479 0
-1124 -1480 0
-1125 -1129 0
-1126 -1130 0
-1127 -1131 0
-1128 -1132 0
-1125 -1229 0
-1126 -1230 0
-1127 -1231 0
-1128 -1232 0
-1129 -1233 0
-1130 -1234 0
-1131 -1235 0
-1132 -1236 0
-1133 -1137 0
-1134 -1138 0
-1135 -1139 0
-1136 -1140 0
-1133 -1369 0
-1134 -1370 0
-1135 -1371 0
-1136 -1372 0
-1137 -1373 0
-1138 -1374 0
-1139 -1375 0
-1140 -1376 0
-1141 -1237 0
-1142 -1238 0
-1143 -1239 0
-1144 -1240 0
-1145 -1249 0
-1146 -1250 0
-1147 -1251 0
-1148 -1252 0
-1145 -1421 0
-1146 -1422 0
-1147 -1423 0
-1148 -1424 0
-1145 -1485 0
-1146 -1486 0
-1147 -1487 0
-1148 -1488 0
-1149 -1241 0
-1150 -1242 0
-1151 -1243 0
-1152 -1244 0
-1149 -1389 0
-1150 -1390 0
-1151 -1391 0
-1152 -1392 0
-1153 -1265 0
-1154 -1266 0
-1155 -1267 0
-1156 -1268 0
-1157 -1257 0
-1158 -1258 0
-1159 -1259 0
-1160 -1260 0
-1157 -1405 0
-1158 -1406 0
-1159 -1407 0
-1160 -1408 0
-1157 -1489 0
-1158 -1490 0
-1159 -1491 0
-1160 -1492 0
-1161 -1273 0
-1162 -1274 0
-1163 -1275 0
-1164 -1276 0
-1161 -1397 0
-1162 -1398 0
-1163 -1399 0
-1164 -1400 0
-1161 -1489 0
-1162 -1490 0
-1163 -1491 0
-1164 -1492 0
-1165 -1265 0
-1166 -1266 0
-1167 -1267 0
-1168 -1268 0
-1165 -1401 0
-1166 -1402 0
-1167 -1403 0
-1168 -1404 0
-1169 -1289 0
-1170 -1290 0
-1171 -1291 0
-1172 -1292 0
-1169 -1413 0
-1170 -1414 0
-1171 -1415 0
-1172 -1416 0
-1173 -1281 0
-1174 -1282 0
-1175 -1283 0
-1176 -1284 0
-1173 -1417 0
-1174 -1418 0
-1175 -1419 0
-1176 -1420 0
-1173 -1493 0
-1174 -1494 0
-1175 -1495 0
-1176 -1496 0
-1177 -1297 0
-1178 -1298 0
-1179 -1299 0
-1180 -1300 0
-1177 -1409 0
-1178 -1410 0
-1179 -1411 0
-1180 -1412 0
-1177 -1493 0
-1178 -1494 0
-1179 -1495 0
-1180 -1496 0
-1181 -1289 0
-1182 -1290 0
-1183 -1291 0
-1184 -1292 0
-1185 -1241 0
-1186 -1242 0
-1187 -1243 0
-1188 -1244 0
-1185 -1425 0
-1186 -1426 0
-1187 -1427 0
-1188 -1428 0
-1189 -1305 0
-1190 -1306 0
-1191 -1307 0
-1192 -1308 0
-1189 -1393 0
-1190 -1394 0
-1191 -1395 0
-1192 -1396 0
-1189 -1485 0
-1190 -1486 0
-1191 -1487 0
-1192 -1488 0
-1193 -1221 0
-1194 -1222 0
-1195 -1223 0
-1196 -1224 0
-1197 -1217 0
-1198 -1218 0
-1199 -1219 0
-1200 -1220 0
-1201 -1229 0
-1202 -1230 0
-1203 -1231 0
-1204 -1232 0
-1205 -1225 0
-1206 -1226 0
-1207 -1227 0
-1208 -1228 0
-1209 -1237 0
-1210 -1238 0
-1211 -1239 0
-1212 -1240 0
-1213 -1233 0
-1214 -1234 0
-1215 -1235 0
-1216 -1236 0
-1217 -1313 0
-1218 -1314 0
-1219 -1315 0
-1220 -1316 0
-1221 -1317 0
-1222 -1318 0
-1223 -1319 0
-1224 -1320 0
-1225 -1321 0
-1226 -1322 0
-1227 -1323 0
-1228 -1324 0
-1229 -1325 0
-1230 -1326 0
-1231 -1327 0
-1232 -1328 0
-1233 -1329 0
-1234 -1330 0
-1235 -1331 0
-1236 -1332 0
-1237 -1333 0
-1238 -1334 0
-1239 -1335 0
-1240 -1336 0
-1245 -1309 0
-1246 -1310 0
-1247 -1311 0
-1248 -1312 0
-1245 -1433 0
-1246 -1434 0
-1247 -1435 0
-1248 -1436 0
-1245 -1473 0
-1246 -1474 0
-1247 -1475 0
-1248 -1476 0
-1245 -1485 0
-1246 -1486 0
-1247 -1487 0
-1248 -1488 0
-1249 -1257 0
-1250 -1258 0
-1251 -1259 0
-1252 -1260 0
-1249 -1429 0
-1250 -1430 0
-1251 -1431 0
-1252 -1432 0
-1249 -1437 0
-1250 -1438 0
-1251 -1439 0
-1252 -1440 0
-1257 -1433 0
-1258 -1434 0
-1259 -1435 0
-1260 -1436 0
-1257 -1441 0
-1258 -1442 0
-1259 -1443 0
-1260 -1444 0
-1261 -1269 0
-1262 -1270 0
-1263 -1271 0
-1264 -1272 0
-1261 -1437 0
-1262 -1438 0
-1263 -1439 0
-1264 -1440 0
-1261 -1445 0
-1262 -1446 0
-1263 -1447 0
-1264 -1448 0
-1261 -1489 0
-1262 -1490 0
-1263 -1491 0
-1264 -1492 0
-1269 -1441 0
-1270 -1442 0
-1271 -1443 0
-1272 -1444 0
-1269 -1449 0
-1270 -1450 0
-1271 -1451 0
-1272 -1452 0
-1269 -1489 0
-1270 -1490 0
-1271 -1491 0
-1272 -1492 0
-1273 -1281 0
-1274 -1282 0
-1275 -1283 0
-1276 -1284 0
-1273 -1445 0
-1274 -1446 0
-1275 -1447 0
-1276 -1448 0
-1273 -1453 0
-1274 -1454 0
-1275 -1455 0
-1276 -1456 0
-1281 -1449 0
-1282 -1450 0
-1283 -1451 0
-1284 -1452 0
-1281 -1457 0
-1282 -1458 0
-1283 -1459 0
-1284 -1460 0
-1285 -1293 0
-1286 -1294 0
-1287 -1295 0
-1288 -1296 0
-1285 -1453 0
-1286 -1454 0
-1287 -1455 0
-1288 -1456 0
-1285 -1461 0
-1286 -1462 0
-1287 -1463 0
-1288 -1464 0
-1285 -1493 0
-1286 -1494 0
-1287 -1495 0
-1288 -1496 0
-1293 -1457 0
-1294 -1458 0
-1295 -1459 0
-1296 -1460 0
-1293 -1465 0
-1294 -1466 0
-1295 -1467 0
-1296 -1468 0
-1293 -1493 0
-1294 -1494 0
-1295 -1495 0
-1296 -1496 0
-1297 -1305 0
-1298 -1306 0
-1299 -1307 0
-1300 -1308 0
-1297 -1461 0
-1298 -1462 0
-1299 -1463 0
-1300 -1464 0
-1297 -1469 0
-1298 -1470 0
-1299 -1471 0
-1300 -1472 0
-1305 -1465 0
-1306 -1466 0
-1307 -1467 0
-1308 -1468 0
-1305 -1473 0
-1306 -1474 0
-1307 -1475 0
-1308 -1476 0
-1309 -1429 0
-1310 -1430 0
-1311 -1431 0
-1312 -1432 0
-1309 -1469 0
-1310 -1470 0
-1311 -1471 0
-1312 -1472 0
-1309 -1485 0
-1310 -1486 0
-1311 -1487 0
-1312 -1488 0
-1337 -1361 0
-1338 -1362 0
-1339 -1363 0
-1340 -1364 0
-1341 -1365 0
-1342 -1366 0
-1343 -1367 0
-1344 -1368 0
-1345 -1481 0
-1346 -1482 0
-1347 -1483 0
-1348 -1484 0
-1349 -1477 0
-1350 -1478 0
-1351 -1479 0
-1352 -1480 0
-1353 -1369 0
-1354 -1370 0
-1355 -1371 0
-1356 -1372 0
-1357 -1373 0
-1358 -1374 0
-1359 -1375 0
-1360 -1376 0
-1361 -1421 0
-1362 -1422 0
-1363 -1423 0
-1364 -1424 0
-1365 -1405 0
-1366 -1406 0
-1367 -1407 0
-1368 -1408 0
-1369 -1409 0
-1370 -1410 0
-1371 -1411 0
-1372 -1412 0
-1373 -1393 0
-1374 -1394 0
-1375 -1395 0
-1376 -1396 0
-1377 -1721 0
-1378 -1722 0
-1379 -1723 0
-1380 -1724 0
-1381 -1729 0
-1382 -1730 0
-1383 -1731 0
-1384 -1732 0
-1385 -1737 0
-1386 -1738 0
-1387 -1739 0
-1388 -1740 0
-1393 -1485 0
-1394 -1486 0
-1395 -1487 0
-1396 -1488 0
-1397 -1489 0
-1398 -1490 0
-1399 -1491 0
-1400 -1492 0
-1405 -1477 0
-1406 -1478 0
-1407 -1479 0
-1408 -1480 0
-1405 -1489 0
-1406 -1490 0
-1407 -1491 0
-1408 -1492 0
-1409 -1481 0
-1410 -1482 0
-1411 -1483 0
-1412 -1484 0
-1409 -1493 0
-1410 -1494 0
-1411 -1495 0
-1412 -1496 0
-1417 -1493 0
-1418 -1494 0
-1419 -1495 0
-1420 -1496 0
-1421 -1485 0
-1422 -1486 0
-1423 -1487 0
-1424 -1488 0
-1429 -1925 0
-1430 -1926 0
-1431 -1927 0
-1432 -1928 0
-1433 -1929 0
-1434 -1930 0
-1435 -1931 0
-1436 -1932 0
-1437 -1933 0
-1438 -1934 0
-1439 -1935 0
-1440 -1936 0
-1441 -1937 0
-1442 -1938 0
-1443 -1939 0
-1444 -1940 0
-1445 -1941 0
-1446 -1942 0
-1447 -1943 0
-1448 -1944 0
-1449 -1945 0
-1450 -1946 0
-1451 -1947 0
-1452 -1948 0
-1453 -1949 0
-1454 -1950 0
-1455 -1951 0
-1456 -1952 0
-1457 -1953 0
-1458 -1954 0
-1459 -1955 0
-1460 -1956 0
-1461 -1957 0
-1462 -1958 0
-1463 -1959 0
-1464 -1960 0
-1465 -1961 0
-1466 -1962 0
-1467 -1963 0
-1468 -1964 0
-1469 -1965 0
-1470 -1966 0
-1471 -1967 0
-1472 -1968 0
-1473 -1969 0
-1474 -1970 0
-1475 -1971 0
-1476 -1972 0
-1497 -1557 0
-1498 -1558 0
-1499 -1559 0
-1500 -1560 0
-1497 -1585 0
-1498 -1586 0
-1499 -1587 0
-1500 -1588 0
-1497 -1621 0
-1498 -1622 0
-1499 -1623 0
-1500 -1624 0
-1497 -1641 0
-1498 -1642 0
-1499 -1643 0
-1500 -1644 0
-1497 -1689 0
-1498 -1690 0
-1499 -1691 0
-1500 -1692 0
-1501 -1565 0
-1502 -1566 0
-1503 -1567 0
-1504 -1568 0
-1501 -1573 0
-1502 -1574 0
-1503 -1575 0
-1504 -1576 0
-1501 -1589 0
-1502 -1590 0
-1503 -1591 0
-1504 -1592 0
-1501 -1645 0
-1502 -1646 0
-1503 -1647 0
-1504 -1648 0
-1501 -1705 0
-1502 -1706 0
-1503 -1707 0
-1504 -1708 0
-1505 -1569 0
-1506 -1570 0
-1507 -1571 0
-1508 -1572 0
-1505 -1577 0
-1506 -1578 0
-1507 -1579 0
-1508 -1580 0
-1505 -1617 0
-1506 -1618 0
-1507 -1619 0
-1508 -1620 0
-1505 -1637 0
-1506 -1638 0
-1507 -1639 0
-1508 -1640 0
-1505 -1665 0
-1506 -1666 0
-1507 -1667 0
-1508 -1668 0
-1505 -1709 0
-1506 -1710 0
-1507 -1711 0
-1508 -1712 0
-1509 -1545 0
-1510 -1546 0
-1511 -1547 0
-1512 -1548 0
-1509 -1549 0
-1510 -1550 0
-1511 -1551 0
-1512 -1552 0
-1509 -1573 0
-1510 -1574 0
-1511 -1575 0
-1512 -1576 0
-1509 -1601 0
-1510 -1602 0
-1511 -1603 0
-1512 -1604 0
-1509 -1629 0
-1510 -1630 0
-1511 -1631 0
-1512 -1632 0
-1509 -1653 0
-1510 -1654 0
-1511 -1655 0
-1512 -1656 0
-1509 -1677 0
-1510 -1678 0
-1511 -1679 0
-1512 -1680 0
-1509 -1713 0
-1510 -1714 0
-1511 -1715 0
-1512 -1716 0
-1509 -1717 0
-1510 -1718 0
-1511 -1719 0
-1512 -1720 0
-1509 -1721 0
-1510 -1722 0
-1511 -1723 0
-1512 -1724 0
-1509 -1741 0
-1510 -1742 0
-1511 -1743 0
-1512 -1744 0
-1509 -1745 0
-1510 -1746 0
-1511 -1747 0
-1512 -1748 0
-1509 -1789 0
-1510 -1790 0
-1511 -1791 0
-1512 -1792 0
-1513 -1549 0
-1514 -1550 0
-1515 -1551 0
-1516 -1552 0
-1513 -1553 0
-1514 -1554 0
-1515 -1555 0
-1516 -1556 0
-1513 -1581 0
-1514 -1582 0
-1515 -1583 0
-1516 -1584 0
-1513 -1589 0
-1514 -1590 0
-1515 -1591 0
-1516 -1592 0
-1513 -1609 0
-1514 -1610 0
-1515 -1611 0
-1516 -1612 0
-1513 -1673 0
-1514 -1674 0
-1515 -1675 0
-1516 -1676 0
-1513 -1685 0
-1514 -1686 0
-1515 -1687 0
-1516 -1688 0
-1513 -1721 0
-1514 -1722 0
-1515 -1723 0
-1516 -1724 0
-1513 -1725 0
-1514 -1726 0
-1515 -1727 0
-1516 -1728 0
-1513 -1749 0
-1514 -1750 0
-1515 -1751 0
-1516 -1752 0
-1513 -1753 0
-1514 -1754 0
-1515 -1755 0
-1516 -1756 0
-1513 -1793 0
-1514 -1794 0
-1515 -1795 0
-1516 -1796 0
-1517 -1533 0
-1518 -1534 0
-1519 -1535 0
-1520 -1536 0
-1517 -1553 0
-1518 -1554 0
-1519 -1555 0
-1520 -1556 0
-1517 -1561 0
-1518 -1562 0
-1519 -1563 0
-1520 -1564 0
-1517 -1597 0
-1518 -1598 0
-1519 -1599 0
-1520 -1600 0
-1517 -1617 0
-1518 -1618 0
-1519 -1619 0
-1520 -1620 0
-1517 -1657 0
-1518 -1658 0
-1519 -1659 0
-1520 -1660 0
-1517 -1681 0
-1518 -1682 0
-1519 -1683 0
-1520 -1684 0
-1517 -1693 0
-1518 -1694 0
-1519 -1695 0
-1520 -1696 0
-1517 -1725 0
-1518 -1726 0
-1519 -1727 0
-1520 -1728 0
-1517 -1729 0
-1518 -1730 0
-1519 -1731 0
-1520 -1732 0
-1517 -1757 0
-1518 -1758 0
-1519 -1759 0
-1520 -1760 0
-1517 -1761 0
-1518 -1762 0
-1519 -1763 0
-1520 -1764 0
-1517 -1797 0
-1518 -1798 0
-1519 -1799 0
-1520 -1800 0
-1521 -1533 0
-1522 -1534 0
-1523 -1535 0
-1524 -1536 0
-1521 -1537 0
-1522 -1538 0
-1523 -1539 0
-1524 -1540 0
-1521 -1569 0
-1522 -1570 0
-1523 -1571 0
-1524 -1572 0
-1521 -1585 0
-1522 -1586 0
-1523 -1587 0
-1524 -1588 0
-1521 -1605 0
-1522 -1606 0
-1523 -1607 0
-1524 -1608 0
-1521 -1625 0
-1522 -1626 0
-1523 -1627 0
-1524 -1628 0
-1521 -1661 0
-1522 -1662 0
-1523 -1663 0
-1524 -1664 0
-1521 -1665 0
-1522 -1666 0
-1523 -1667 0
-1524 -1668 0
-1521 -1689 0
-1522 -1690 0
-1523 -1691 0
-1524 -1692 0
-1521 -1701 0
-1522 -1702 0
-1523 -1703 0
-1524 -1704 0
-1521 -1729 0
-1522 -1730 0
-1523 -1731 0
-1524 -1732 0
-1521 -1733 0
-1522 -1734 0
-1523 -1735 0
-1524 -1736 0
-1521 -1765 0
-1522 -1766 0
-1523 -1767 0
-1524 -1768 0
-1521 -1769 0
-1522 -1770 0
-1523 -1771 0
-1524 -1772 0
-1521 -1801 0
-1522 -1802 0
-1523 -1803 0
-1524 -1804 0
-1525 -1537 0
-1526 -1538 0
-1527 -1539 0
-1528 -1540 0
-1525 -1541 0
-1526 -1542 0
-1527 -1543 0
-1528 -1544 0
-1525 -1557 0
-1526 -1558 0
-1527 -1559 0
-1528 -1560 0
-1525 -1577 0
-1526 -1578 0
-1527 -1579 0
-1528 -1580 0
-1525 -1613 0
-1526 -1614 0
-1527 -1615 0
-1528 -1616 0
-1525 -1633 0
-1526 -1634 0
-1527 -1635 0
-1528 -1636 0
-1525 -1697 0
-1526 -1698 0
-1527 -1699 0
-1528 -1700 0
-1525 -1709 0
-1526 -1710 0
-1527 -1711 0
-1528 -1712 0
-1525 -1733 0
-1526 -1734 0
-1527 -1735 0
-1528 -1736 0
-1525 -1737 0
-1526 -1738 0
-1527 -1739 0
-1528 -1740 0
-1525 -1773 0
-1526 -1774 0
-1527 -1775 0
-1528 -1776 0
-1525 -1777 0
-1526 -1778 0
-1527 -1779 0
-1528 -1780 0
-1525 -1805 0
-1526 -1806 0
-1527 -1807 0
-1528 -1808 0
-1529 -1541 0
-1530 -1542 0
-1531 -1543 0
-1532 -1544 0
-1529 -1545 0
-1530 -1546 0
-1531 -1547 0
-1532 -1548 0
-1529 -1565 0
-1530 -1566 0
-1531 -1567 0
-1532 -1568 0
-1529 -1593 0
-1530 -1594 0
-1531 -1595 0
-1532 -1596 0
-1529 -1621 0
-1530 -1622 0
-1531 -1623 0
-1532 -1624 0
-1529 -1649 0
-1530 -1650 0
-1531 -1651 0
-1532 -1652 0
-1529 -1669 0
-1530 -1670 0
-1531 -1671 0
-1532 -1672 0
-1529 -1705 0
-1530 -1706 0
-1531 -1707 0
-1532 -1708 0
-1529 -1717 0
-1530 -1718 0
-1531 -1719 0
-1532 -1720 0
-1529 -1737 0
-1530 -1738 0
-1531 -1739 0
-1532 -1740 0
-1529 -1781 0
-1530 -1782 0
-1531 -1783 0
-1532 -1784 0
-1529 -1785 0
-1530 -1786 0
-1531 -1787 0
-1532 -1788 0
-1529 -1809 0
-1530 -1810 0
-1531 -1811 0
-1532 -1812 0
-1533 -1541 0
-1534 -1542 0
-1535 -1543 0
-1536 -1544 0
-1533 -1549 0
-1534 -1550 0
-1535 -1551 0
-1536 -1552 0
-1533 -1569 0
-1534 -1570 0
-1535 -1571 0
-1536 -1572 0
-1533 -1597 0
-1534 -1598 0
-1535 -1599 0
-1536 -1600 0
-1533 -1625 0
-1534 -1626 0
-1535 -1627 0
-1536 -1628 0
-1533 -1673 0
-1534 -1674 0
-1535 -1675 0
-1536 -1676 0
-1533 -1709 0
-1534 -1710 0
-1535 -1711 0
-1536 -1712 0
-1533 -1789 0
-1534 -1790 0
-1535 -1791 0
-1536 -1792 0
-1533 -1809 0
-1534 -1810 0
-1535 -1811 0
-1536 -1812 0
-1533 -1833 0
-1534 -1834 0
-1535 -1835 0
-1536 -1836 0
-1537 -1545 0
-1538 -1546 0
-1539 -1547 0
-1540 -1548 0
-1537 -1553 0
-1538 -1554 0
-1539 -1555 0
-1540 -1556 0
-1537 -1577 0
-1538 -1578 0
-1539 -1579 0
-1540 -1580 0
-1537 -1585 0
-1538 -1586 0
-1539 -1587 0
-1540 -1588 0
-1537 -1605 0
-1538 -1606 0
-1539 -1607 0
-1540 -1608 0
-1537 -1633 0
-1538 -1634 0
-1539 -1635 0
-1540 -1636 0
-1537 -1637 0
-1538 -1638 0
-1539 -1639 0
-1540 -1640 0
-1537 -1641 0
-1538 -1642 0
-1539 -1643 0
-1540 -1644 0
-1537 -1669 0
-1538 -1670 0
-1539 -1671 0
-1540 -1672 0
-1537 -1681 0
-1538 -1682 0
-1539 -1683 0
-1540 -1684 0
-1537 -1789 0
-1538 -1790 0
-1539 -1791 0
-1540 -1792 0
-1537 -1793 0
-1538 -1794 0
-1539 -1795 0
-1540 -1796 0
-1537 -1813 0
-1538 -1814 0
-1539 -1815 0
-1540 -1816 0
-1541 -1549 0
-1542 -1550 0
-1543 -1551 0
-1544 -1552 0
-1541 -1557 0
-1542 -1558 0
-1543 -1559 0
-1544 -1560 0
-1541 -1593 0
-1542 -1594 0
-1543 -1595 0
-1544 -1596 0
-1541 -1613 0
-1542 -1614 0
-1543 -1615 0
-1544 -1616 0
-1541 -1677 0
-1542 -1678 0
-1543 -1679 0
-1544 -1680 0
-1541 -1689 0
-1542 -1690 0
-1543 -1691 0
-1544 -1692 0
-1541 -1793 0
-1542 -1794 0
-1543 -1795 0
-1544 -1796 0
-1541 -1797 0
-1542 -1798 0
-1543 -1799 0
-1544 -1800 0
-1541 -1817 0
-1542 -1818 0
-1543 -1819 0
-1544 -1820 0
-1545 -1553 0
-1546 -1554 0
-1547 -1555 0
-1548 -1556 0
-1545 -1565 0
-1546 -1566 0
-1547 -1567 0
-1548 -1568 0
-1545 -1601 0
-1546 -1602 0
-1547 -1603 0
-1548 -1604 0
-1545 -1621 0
-1546 -1622 0
-1547 -1623 0
-1548 -1624 0
-1545 -1641 0
-1546 -1642 0
-1547 -1643 0
-1548 -1644 0
-1545 -1645 0
-1546 -1646 0
-1547 -1647 0
-1548 -1648 0
-1545 -1685 0
-1546 -1686 0
-1547 -1687 0
-1548 -1688 0
-1545 -1697 0
-1546 -1698 0
-1547 -1699 0
-1548 -1700 0
-1545 -1797 0
-1546 -1798 0
-1547 -1799 0
-1548 -1800 0
-1545 -1801 0
-1546 -1802 0
-1547 -1803 0
-1548 -1804 0
-1549 -1573 0
-1550 -1574 0
-1551 -1575 0
-1552 -1576 0
-1549 -1609 0
-1550 -1610 0
-1551 -1611 0
-1552 -1612 0
-1549 -1629 0
-1550 -1630 0
-1551 -1631 0
-1552 -1632 0
-1549 -1693 0
-1550 -1694 0
-1551 -1695 0
-1552 -1696 0
-1549 -1705 0
-1550 -1706 0
-1551 -1707 0
-1552 -1708 0
-1549 -1801 0
-1550 -1802 0
-1551 -1803 0
-1552 -1804 0
-1549 -1805 0
-1550 -1806 0
-1551 -1807 0
-1552 -1808 0
-1549 -1821 0
-1550 -1822 0
-1551 -1823 0
-1552 -1824 0
-1549 -1825 0
-1550 -1826 0
-1551 -1827 0
-1552 -1828 0
-1553 -1561 0
-1554 -1562 0
-1555 -1563 0
-1556 -1564 0
-1553 -1581 0
-1554 -1582 0
-1555 -1583 0
-1556 -1584 0
-1553 -1589 0
-1554 -1590 0
-1555 -1591 0
-1556 -1592 0
-1553 -1617 0
-1554 -1618 0
-1555 -1619 0
-1556 -1620 0
-1553 -1637 0
-1554 -1638 0
-1555 -1639 0
-1556 -1640 0
-1553 -1645 0
-1554 -1646 0
-1555 -1647 0
-1556 -1648 0
-1553 -1701 0
-1554 -1702 0
-1555 -1703 0
-1556 -1704 0
-1553 -1713 0
-1554 -1714 0
-1555 -1715 0
-1556 -1716 0
-1553 -1805 0
-1554 -1806 0
-1555 -1807 0
-1556 -1808 0
-1553 -1809 0
-1554 -1810 0
-1555 -1811 0
-1556 -1812 0
-1553 -1829 0
-1554 -1830 0
-1555 -1831 0
-1556 -1832 0
-1557 -1629 0
-1558 -1630 0
-1559 -1631 0
-1560 -1632 0
-1557 -1677 0
-1558 -1678 0
-1559 -1679 0
-1560 -1680 0
-1557 -1785 0
-1558 -1786 0
-1559 -1787 0
-1560 -1788 0
-1557 -1813 0
-1558 -1814 0
-1559 -1815 0
-1560 -1816 0
-1557 -1833 0
-1558 -1834 0
-1559 -1835 0
-1560 -1836 0
-1557 -1837 0
-1558 -1838 0
-1559 -1839 0
-1560 -1840 0
-1561 -1601 0
-1562 -1602 0
-1563 -1603 0
-1564 -1604 0
-1561 -1657 0
-1562 -1658 0
-1563 -1659 0
-1564 -1660 0
-1561 -1713 0
-1562 -1714 0
-1563 -1715 0
-1564 -1716 0
-1561 -1749 0
-1562 -1750 0
-1563 -1751 0
-1564 -1752 0
-1561 -1841 0
-1562 -1842 0
-1563 -1843 0
-1564 -1844 0
-1565 -1589 0
-1566 -1590 0
-1567 -1591 0
-1568 -1592 0
-1565 -1649 0
-1566 -1650 0
-1567 -1651 0
-1568 -1652 0
-1565 -1685 0
-1566 -1686 0
-1567 -1687 0
-1568 -1688 0
-1565 -1745 0
-1566 -1746 0
-1567 -1747 0
-1568 -1748 0
-1565 -1813 0
-1566 -1814 0
-1567 -1815 0
-1568 -1816 0
-1565 -1817 0
-1566 -1818 0
-1567 -1819 0
-1568 -1820 0
-1565 -1845 0
-1566 -1846 0
-1567 -1847 0
-1568 -1848 0
-1569 -1609 0
-1570 -1610 0
-1571 -1611 0
-1572 -1612 0
-1569 -1661 0
-1570 -1662 0
-1571 -1663 0
-1572 -1664 0
-1569 -1673 0
-1570 -1674 0
-1571 -1675 0
-1572 -1676 0
-1569 -1757 0
-1570 -1758 0
-1571 -1759 0
-1572 -1760 0
-1569 -1849 0
-1570 -1850 0
-1571 -1851 0
-1572 -1852 0
-1573 -1597 0
-1574 -1598 0
-1575 -1599 0
-1576 -1600 0
-1573 -1653 0
-1574 -1654 0
-1575 -1655 0
-1576 -1656 0
-1573 -1693 0
-1574 -1694 0
-1575 -1695 0
-1576 -1696 0
-1573 -1753 0
-1574 -1754 0
-1575 -1755 0
-1576 -1756 0
-1573 -1817 0
-1574 -1818 0
-1575 -1819 0
-1576 -1820 0
-1573 -1853 0
-1574 -1854 0
-1575 -1855 0
-1576 -1856 0
-1577 -1617 0
-1578 -1618 0
-1579 -1619 0
-1580 -1620 0
-1577 -1681 0
-1578 -1682 0
-1579 -1683 0
-1580 -1684 0
-1577 -1765 0
-1578 -1766 0
-1579 -1767 0
-1580 -1768 0
-1577 -1857 0
-1578 -1858 0
-1579 -1859 0
-1580 -1860 0
-1581 -1605 0
-1582 -1606 0
-1583 -1607 0
-1584 -1608 0
-1581 -1701 0
-1582 -1702 0
-1583 -1703 0
-1584 -1704 0
-1581 -1761 0
-1582 -1762 0
-1583 -1763 0
-1584 -1764 0
-1581 -1821 0
-1582 -1822 0
-1583 -1823 0
-1584 -1824 0
-1581 -1861 0
-1582 -1862 0
-1583 -1863 0
-1584 -1864 0
-1585 -1621 0
-1586 -1622 0
-1587 -1623 0
-1588 -1624 0
-1585 -1665 0
-1586 -1666 0
-1587 -1667 0
-1588 -1668 0
-1585 -1669 0
-1586 -1670 0
-1587 -1671 0
-1588 -1672 0
-1585 -1777 0
-1586 -1778 0
-1587 -1779 0
-1588 -1780 0
-1585 -1829 0
-1586 -1830 0
-1587 -1831 0
-1588 -1832 0
-1585 -1833 0
-1586 -1834 0
-1587 -1835 0
-1588 -1836 0
-1585 -1877 0
-1586 -1878 0
-1587 -1879 0
-1588 -1880 0
-1589 -1597 0
-1590 -1598 0
-1591 -1599 0
-1592 -1600 0
-1589 -1629 0
-1590 -1630 0
-1591 -1631 0
-1592 -1632 0
-1589 -1721 0
-1590 -1722 0
-1591 -1723 0
-1592 -1724 0
-1589 -1809 0
-1590 -1810 0
-1591 -1811 0
-1592 -1812 0
-1589 -1813 0
-1590 -1814 0
-1591 -1815 0
-1592 -1816 0
-1589 -1841 0
-1590 -1842 0
-1591 -1843 0
-1592 -1844 0
-1589 -1881 0
-1590 -1882 0
-1591 -1883 0
-1592 -1884 0
-1589 -1885 0
-1590 -1886 0
-1591 -1887 0
-1592 -1888 0
-1589 -1901 0
-1590 -1902 0
-1591 -1903 0
-1592 -1904 0
-1589 -1925 0
-1590 -1926 0
-1591 -1927 0
-1592 -1928 0
-1593 -1601 0
-1594 -1602 0
-1595 -1603 0
-1596 -1604 0
-1593 -1633 0
-1594 -1634 0
-1595 -1635 0
-1596 -1636 0
-1593 -1717 0
-1594 -1718 0
-1595 -1719 0
-1596 -1720 0
-1593 -1793 0
-1594 -1794 0
-1595 -1795 0
-1596 -1796 0
-1593 -1837 0
-1594 -1838 0
-1595 -1839 0
-1596 -1840 0
-1593 -1845 0
-1594 -1846 0
-1595 -1847 0
-1596 -1848 0
-1593 -1885 0
-1594 -1886 0
-1595 -1887 0
-1596 -1888 0
-1593 -1905 0
-1594 -1906 0
-1595 -1907 0
-1596 -1908 0
-1593 -1929 0
-1594 -1930 0
-1595 -1931 0
-1596 -1932 0
-1597 -1605 0
-1598 -1606 0
-1599 -1607 0
-1600 -1608 0
-1597 -1725 0
-1598 -1726 0
-1599 -1727 0
-1600 -1728 0
-1597 -1789 0
-1598 -1790 0
-1599 -1791 0
-1600 -1792 0
-1597 -1817 0
-1598 -1818 0
-1599 -1819 0
-1600 -1820 0
-1597 -1841 0
-1598 -1842 0
-1599 -1843 0
-1600 -1844 0
-1597 -1849 0
-1598 -1850 0
-1599 -1851 0
-1600 -1852 0
-1597 -1905 0
-1598 -1906 0
-1599 -1907 0
-1600 -1908 0
-1597 -1933 0
-1598 -1934 0
-1599 -1935 0
-1600 -1936 0
-1601 -1609 0
-1602 -1610 0
-1603 -1611 0
-1604 -1612 0
-1601 -1721 0
-1602 -1722 0
-1603 -1723 0
-1604 -1724 0
-1601 -1797 0
-1602 -1798 0
-1603 -1799 0
-1604 -1800 0
-1601 -1845 0
-1602 -1846 0
-1603 -1847 0
-1604 -1848 0
-1601 -1853 0
-1602 -1854 0
-1603 -1855 0
-1604 -1856 0
-1601 -1909 0
-1602 -1910 0
-1603 -1911 0
-1604 -1912 0
-1601 -1937 0
-1602 -1938 0
-1603 -1939 0
-1604 -1940 0
-1605 -1613 0
-1606 -1614 0
-1607 -1615 0
-1608 -1616 0
-1605 -1729 0
-1606 -1730 0
-1607 -1731 0
-1608 -1732 0
-1605 -1793 0
-1606 -1794 0
-1607 -1795 0
-1608 -1796 0
-1605 -1849 0
-1606 -1850 0
-1607 -1851 0
-1608 -1852 0
-1605 -1857 0
-1606 -1858 0
-1607 -1859 0
-1608 -1860 0
-1605 -1889 0
-1606 -1890 0
-1607 -1891 0
-1608 -1892 0
-1605 -1909 0
-1606 -1910 0
-1607 -1911 0
-1608 -1912 0
-1605 -1941 0
-1606 -1942 0
-1607 -1943 0
-1608 -1944 0
-1609 -1617 0
-1610 -1618 0
-1611 -1619 0
-1612 -1620 0
-1609 -1725 0
-1610 -1726 0
-1611 -1727 0
-1612 -1728 0
-1609 -1801 0
-1610 -1802 0
-1611 -1803 0
-1612 -1804 0
-1609 -1853 0
-1610 -1854 0
-1611 -1855 0
-1612 -1856 0
-1609 -1861 0
-1610 -1862 0
-1611 -1863 0
-1612 -1864 0
-1609 -1889 0
-1610 -1890 0
-1611 -1891 0
-1612 -1892 0
-1609 -1913 0
-1610 -1914 0
-1611 -1915 0
-1612 -1916 0
-1609 -1945 0
-1610 -1946 0
-1611 -1947 0
-1612 -1948 0
-1613 -1621 0
-1614 -1622 0
-1615 -1623 0
-1616 -1624 0
-1613 -1733 0
-1614 -1734 0
-1615 -1735 0
-1616 -1736 0
-1613 -1797 0
-1614 -1798 0
-1615 -1799 0
-1616 -1800 0
-1613 -1821 0
-1614 -1822 0
-1615 -1823 0
-1616 -1824 0
-1613 -1857 0
-1614 -1858 0
-1615 -1859 0
-1616 -1860 0
-1613 -1865 0
-1614 -1866 0
-1615 -1867 0
-1616 -1868 0
-1613 -1893 0
-1614 -1894 0
-1615 -1895 0
-1616 -1896 0
-1613 -1913 0
-1614 -1914 0
-1615 -1915 0
-1616 -1916 0
-1613 -1949 0
-1614 -1950 0
-1615 -1951 0
-1616 -1952 0
-1617 -1625 0
-1618 -1626 0
-1619 -1627 0
-1620 -1628 0
-1617 -1729 0
-1618 -1730 0
-1619 -1731 0
-1620 -1732 0
-1617 -1805 0
-1618 -1806 0
-1619 -1807 0
-1620 -1808 0
-1617 -1861 0
-1618 -1862 0
-1619 -1863 0
-1620 -1864 0
-1617 -1869 0
-1618 -1870 0
-1619 -1871 0
-1620 -1872 0
-1617 -1893 0
-1618 -1894 0
-1619 -1895 0
-1620 -1896 0
-1617 -1917 0
-1618 -1918 0
-1619 -1919 0
-1620 -1920 0
-1617 -1953 0
-1618 -1954 0
-1619 -1955 0
-1620 -1956 0
-1621 -1629 0
-1622 -1630 0
-1623 -1631 0
-1624 -1632 0
-1621 -1737 0
-1622 -1738 0
-1623 -1739 0
-1624 -1740 0
-1621 -1801 0
-1622 -1802 0
-1623 -1803 0
-1624 -1804 0
-1621 -1829 0
-1622 -1830 0
-1623 -1831 0
-1624 -1832 0
-1621 -1865 0
-1622 -1866 0
-1623 -1867 0
-1624 -1868 0
-1621 -1873 0
-1622 -1874 0
-1623 -1875 0
-1624 -1876 0
-1621 -1917 0
-1622 -1918 0
-1623 -1919 0
-1624 -1920 0
-1621 -1957 0
-1622 -1958 0
-1623 -1959 0
-1624 -1960 0
-1625 -1633 0
-1626 -1634 0
-1627 -1635 0
-1628 -1636 0
-1625 -1733 0
-1626 -1734 0
-1627 -1735 0
-1628 -1736 0
-1625 -1809 0
-1626 -1810 0
-1627 -1811 0
-1628 -1812 0
-1625 -1825 0
-1626 -1826 0
-1627 -1827 0
-1628 -1828 0
-1625 -1869 0
-1626 -1870 0
-1627 -1871 0
-1628 -1872 0
-1625 -1877 0
-1626 -1878 0
-1627 -1879 0
-1628 -1880 0
-1625 -1921 0
-1626 -1922 0
-1627 -1923 0
-1628 -1924 0
-1625 -1961 0
-1626 -1962 0
-1627 -1963 0
-1628 -1964 0
-1629 -1717 0
-1630 -1718 0
-1631 -1719 0
-1632 -1720 0
-1629 -1805 0
-1630 -1806 0
-1631 -1807 0
-1632 -1808 0
-1629 -1833 0
-1630 -1834 0
-1631 -1835 0
-1632 -1836 0
-1629 -1873 0
-1630 -1874 0
-1631 -1875 0
-1632 -1876 0
-1629 -1881 0
-1630 -1882 0
-1631 -1883 0
-1632 -1884 0
-1629 -1897 0
-1630 -1898 0
-1631 -1899 0
-1632 -1900 0
-1629 -1921 0
-1630 -1922 0
-1631 -1923 0
-1632 -1924 0
-1629 -1965 0
-1630 -1966 0
-1631 -1967 0
-1632 -1968 0
-1633 -1737 0
-1634 -1738 0
-1635 -1739 0
-1636 -1740 0
-1633 -1789 0
-1634 -1790 0
-1635 -1791 0
-1636 -1792 0
-1633 -1837 0
-1634 -1838 0
-1635 -1839 0
-1636 -1840 0
-1633 -1877 0
-1634 -1878 0
-1635 -1879 0
-1636 -1880 0
-1633 -1897 0
-1634 -1898 0
-1635 -1899 0
-1636 -1900 0
-1633 -1901 0
-1634 -1902 0
-1635 -1903 0
-1636 -1904 0
-1633 -1969 0
-1634 -1970 0
-1635 -1971 0
-1636 -1972 0
-1637 -1673 0
-1638 -1674 0
-1639 -1675 0
-1640 -1676 0
-1637 -1709 0
-1638 -1710 0
-1639 -1711 0
-1640 -1712 0
-1641 -1677 0
-1642 -1678 0
-1643 -1679 0
-1644 -1680 0
-1641 -1689 0
-1642 -1690 0
-1643 -1691 0
-1644 -1692 0
-1645 -1693 0
-1646 -1694 0
-1647 -1695 0
-1648 -1696 0
-1645 -1705 0
-1646 -1706 0
-1647 -1707 0
-1648 -1708 0
-1649 -1677 0
-1650 -1678 0
-1651 -1679 0
-1652 -1680 0
-1649 -1785 0
-1650 -1786 0
-1651 -1787 0
-1652 -1788 0
-1649 -1901 0
-1650 -1902 0
-1651 -1903 0
-1652 -1904 0
-1649 -1929 0
-1650 -1930 0
-1651 -1931 0
-1652 -1932 0
-1653 -1685 0
-1654 -1686 0
-1655 -1687 0
-1656 -1688 0
-1653 -1745 0
-1654 -1746 0
-1655 -1747 0
-1656 -1748 0
-1653 -1905 0
-1654 -1906 0
-1655 -1907 0
-1656 -1908 0
-1653 -1937 0
-1654 -1938 0
-1655 -1939 0
-1656 -1940 0
-1657 -1673 0
-1658 -1674 0
-1659 -1675 0
-1660 -1676 0
-1657 -1757 0
-1658 -1758 0
-1659 -1759 0
-1660 -1760 0
-1657 -1909 0
-1658 -1910 0
-1659 -1911 0
-1660 -1912 0
-1657 -1933 0
-1658 -1934 0
-1659 -1935 0
-1660 -1936 0
-1661 -1681 0
-1662 -1682 0
-1663 -1683 0
-1664 -1684 0
-1661 -1765 0
-1662 -1766 0
-1663 -1767 0
-1664 -1768 0
-1661 -1913 0
-1662 -1914 0
-1663 -1915 0
-1664 -1916 0
-1661 -1941 0
-1662 -1942 0
-1663 -1943 0
-1664 -1944 0
-1665 -1709 0
-1666 -1710 0
-1667 -1711 0
-1668 -1712 0
-1665 -1769 0
-1666 -1770 0
-1667 -1771 0
-1668 -1772 0
-1665 -1917 0
-1666 -1918 0
-1667 -1919 0
-1668 -1920 0
-1665 -1961 0
-1666 -1962 0
-1667 -1963 0
-1668 -1964 0
-1669 -1809 0
-1670 -1810 0
-1671 -1811 0
-1672 -1812 0
-1669 -1813 0
-1670 -1814 0
-1671 -1815 0
-1672 -1816 0
-1669 -1969 0
-1670 -1970 0
-1671 -1971 0
-1672 -1972 0
-1669 -1973 0
-1670 -1974 0
-1671 -1975 0
-1672 -1976 0
-1673 -1793 0
-1674 -1794 0
-1675 -1795 0
-1676 -1796 0
-1673 -1933 0
-1674 -1934 0
-1675 -1935 0
-1676 -1936 0
-1677 -1789 0
-1678 -1790 0
-1679 -1791 0
-1680 -1792 0
-1677 -1817 0
-1678 -1818 0
-1679 -1819 0
-1680 -1820 0
-1677 -1929 0
-1678 -1930 0
-1679 -1931 0
-1680 -1932 0
-1681 -1797 0
-1682 -1798 0
-1683 -1799 0
-1684 -1800 0
-1681 -1941 0
-1682 -1942 0
-1683 -1943 0
-1684 -1944 0
-1685 -1793 0
-1686 -1794 0
-1687 -1795 0
-1688 -1796 0
-1685 -1937 0
-1686 -1938 0
-1687 -1939 0
-1688 -1940 0
-1685 -1977 0
-1686 -1978 0
-1687 -1979 0
-1688 -1980 0
-1689 -1801 0
-1690 -1802 0
-1691 -1803 0
-1692 -1804 0
-1689 -1949 0
-1690 -1950 0
-1691 -1951 0
-1692 -1952 0
-1693 -1797 0
-1694 -1798 0
-1695 -1799 0
-1696 -1800 0
-1693 -1821 0
-1694 -1822 0
-1695 -1823 0
-1696 -1824 0
-1693 -1945 0
-1694 -1946 0
-1695 -1947 0
-1696 -1948 0
-1697 -1805 0
-1698 -1806 0
-1699 -1807 0
-1700 -1808 0
-1697 -1957 0
-1698 -1958 0
-1699 -1959 0
-1700 -1960 0
-1697 -1981 0
-1698 -1982 0
-1699 -1983 0
-1700 -1984 0
-1701 -1801 0
-1702 -1802 0
-1703 -1803 0
-1704 -1804 0
-1701 -1829 0
-1702 -1830 0
-1703 -1831 0
-1704 -1832 0
-1701 -1953 0
-1702 -1954 0
-1703 -1955 0
-1704 -1956 0
-1705 -1809 0
-1706 -1810 0
-1707 -1811 0
-1708 -1812 0
-1705 -1825 0
-1706 -1826 0
-1707 -1827 0
-1708 -1828 0
-1705 -1965 0
-1706 -1966 0
-1707 -1967 0
-1708 -1968 0
-1709 -1805 0
-1710 -1806 0
-1711 -1807 0
-1712 -1808 0
-1709 -1833 0
-1710 -1834 0
-1711 -1835 0
-1712 -1836 0
-1709 -1961 0
-1710 -1962 0
-1711 -1963 0
-1712 -1964 0
-1709 -1985 0
-1710 -1986 0
-1711 -1987 0
-1712 -1988 0
-1713 -1789 0
-1714 -1790 0
-1715 -1791 0
-1716 -1792 0
-1713 -1925 0
-1714 -1926 0
-1715 -1927 0
-1716 -1928 0
-1717 -1745 0
-1718 -1746 0
-1719 -1747 0
-1720 -1748 0
-1717 -1781 0
-1718 -1782 0
-1719 -1783 0
-1720 -1784 0
-1717 -1885 0
-1718 -1886 0
-1719 -1887 0
-1720 -1888 0
-1717 -1897 0
-1718 -1898 0
-1719 -1899 0
-1720 -1900 0
-1717 -1973 0
-1718 -1974 0
-1719 -1975 0
-1720 -1976 0
-1721 -1741 0
-1722 -1742 0
-1723 -1743 0
-1724 -1744 0
-1721 -1753 0
-1722 -1754 0
-1723 -1755 0
-1724 -1756 0
-1721 -1885 0
-1722 -1886 0
-1723 -1887 0
-1724 -1888 0
-1725 -1749 0
-1726 -1750 0
-1727 -1751 0
-1728 -1752 0
-1725 -1761 0
-1726 -1762 0
-1727 -1763 0
-1728 -1764 0
-1725 -1889 0
-1726 -1890 0
-1727 -1891 0
-1728 -1892 0
-1725 -1977 0
-1726 -1978 0
-1727 -1979 0
-1728 -1980 0
-1729 -1757 0
-1730 -1758 0
-1731 -1759 0
-1732 -1760 0
-1729 -1769 0
-1730 -1770 0
-1731 -1771 0
-1732 -1772 0
-1729 -1889 0
-1730 -1890 0
-1731 -1891 0
-1732 -1892 0
-1729 -1893 0
-1730 -1894 0
-1731 -1895 0
-1732 -1896 0
-1733 -1765 0
-1734 -1766 0
-1735 -1767 0
-1736 -1768 0
-1733 -1777 0
-1734 -1778 0
-1735 -1779 0
-1736 -1780 0
-1733 -1893 0
-1734 -1894 0
-1735 -1895 0
-1736 -1896 0
-1733 -1981 0
-1734 -1982 0
-1735 -1983 0
-1736 -1984 0
-1737 -1773 0
-1738 -1774 0
-1739 -1775 0
-1740 -1776 0
-1737 -1785 0
-1738 -1786 0
-1739 -1787 0
-1740 -1788 0
-1737 -1897 0
-1738 -1898 0
-1739 -1899 0
-1740 -1900 0
-1737 -1985 0
-1738 -1986 0
-1739 -1987 0
-1740 -1988 0
-1741 -1881 0
-1742 -1882 0
-1743 -1883 0
-1744 -1884 0
-1741 -1929 0
-1742 -1930 0
-1743 -1931 0
-1744 -1932 0
-1741 -1989 0
-1742 -1990 0
-1743 -1991 0
-1744 -1992 0
-1745 -1845 0
-1746 -1846 0
-1747 -1847 0
-1748 -1848 0
-1745 -1925 0
-1746 -1926 0
-1747 -1927 0
-1748 -1928 0
-1745 -1993 0
-1746 -1994 0
-1747 -1995 0
-1748 -1996 0
-1749 -1841 0
-1750 -1842 0
-1751 -1843 0
-1752 -1844 0
-1749 -1937 0
-1750 -1938 0
-1751 -1939 0
-1752 -1940 0
-1749 -1997 0
-1750 -1998 0
-1751 -1999 0
-1752 -2000 0
-1753 -1853 0
-1754 -1854 0
-1755 -1855 0
-1756 -1856 0
-1753 -1933 0
-1754 -1934 0
-1755 -1935 0
-1756 -1936 0
-1753 -2001 0
-1754 -2002 0
-1755 -2003 0
-1756 -2004 0
-1757 -1849 0
-1758 -1850 0
-1759 -1851 0
-1760 -1852 0
-1757 -1945 0
-1758 -1946 0
-1759 -1947 0
-1760 -1948 0
-1757 -2005 0
-1758 -2006 0
-1759 -2007 0
-1760 -2008 0
-1761 -1861 0
-1762 -1862 0
-1763 -1863 0
-1764 -1864 0
-1761 -1941 0
-1762 -1942 0
-1763 -1943 0
-1764 -1944 0
-1761 -2009 0
-1762 -2010 0
-1763 -2011 0
-1764 -2012 0
-1765 -1857 0
-1766 -1858 0
-1767 -1859 0
-1768 -1860 0
-1765 -1953 0
-1766 -1954 0
-1767 -1955 0
-1768 -1956 0
-1765 -2013 0
-1766 -2014 0
-1767 -2015 0
-1768 -2016 0
-1769 -1869 0
-1770 -1870 0
-1771 -1871 0
-1772 -1872 0
-1769 -1949 0
-1770 -1950 0
-1771 -1951 0
-1772 -1952 0
-1769 -2017 0
-1770 -2018 0
-1771 -2019 0
-1772 -2020 0
-1773 -1865 0
-1774 -1866 0
-1775 -1867 0
-1776 -1868 0
-1773 -1961 0
-1774 -1962 0
-1775 -1963 0
-1776 -1964 0
-1773 -2021 0
-1774 -2022 0
-1775 -2023 0
-1776 -2024 0
-1777 -1877 0
-1778 -1878 0
-1779 -1879 0
-1780 -1880 0
-1777 -1957 0
-1778 -1958 0
-1779 -1959 0
-1780 -1960 0
-1777 -2025 0
-1778 -2026 0
-1779 -2027 0
-1780 -2028 0
-1781 -1873 0
-1782 -1874 0
-1783 -1875 0
-1784 -1876 0
-1781 -1969 0
-1782 -1970 0
-1783 -1971 0
-1784 -1972 0
-1781 -2029 0
-1782 -2030 0
-1783 -2031 0
-1784 -2032 0
-1785 -1837 0
-1786 -1838 0
-1787 -1839 0
-1788 -1840 0
-1785 -1965 0
-1786 -1966 0
-1787 -1967 0
-1788 -1968 0
-1785 -2033 0
-1786 -2034 0
-1787 -2035 0
-1788 -2036 0
-1789 -1833 0
-1790 -1834 0
-1791 -1835 0
-1792 -1836 0
-1789 -1901 0
-1790 -1902 0
-1791 -1903 0
-1792 -1904 0
-1789 -1905 0
-1790 -1906 0
-1791 -1907 0
-1792 -1908 0
-1789 -1973 0
-1790 -1974 0
-1791 -1975 0
-1792 -1976 0
-1789 -1989 0
-1790 -1990 0
-1791 -1991 0
-1792 -1992 0
-1789 -1993 0
-1790 -1994 0
-1791 -1995 0
-1792 -1996 0
-1793 -1813 0
-1794 -1814 0
-1795 -1815 0
-1796 -1816 0
-1793 -1905 0
-1794 -1906 0
-1795 -1907 0
-1796 -1908 0
-1793 -1909 0
-1794 -1910 0
-1795 -1911 0
-1796 -1912 0
-1793 -1997 0
-1794 -1998 0
-1795 -1999 0
-1796 -2000 0
-1793 -2001 0
-1794 -2002 0
-1795 -2003 0
-1796 -2004 0
-1797 -1817 0
-1798 -1818 0
-1799 -1819 0
-1800 -1820 0
-1797 -1909 0
-1798 -1910 0
-1799 -1911 0
-1800 -1912 0
-1797 -1913 0
-1798 -1914 0
-1799 -1915 0
-1800 -1916 0
-1797 -1977 0
-1798 -1978 0
-1799 -1979 0
-1800 -1980 0
-1797 -2005 0
-1798 -2006 0
-1799 -2007 0
-1800 -2008 0
-1797 -2009 0
-1798 -2010 0
-1799 -2011 0
-1800 -2012 0
-1801 -1825 0
-1802 -1826 0
-1803 -1827 0
-1804 -1828 0
-1801 -1913 0
-1802 -1914 0
-1803 -1915 0
-1804 -1916 0
-1801 -1917 0
-1802 -1918 0
-1803 -1919 0
-1804 -1920 0
-1801 -1981 0
-1802 -1982 0
-1803 -1983 0
-1804 -1984 0
-1801 -2013 0
-1802 -2014 0
-1803 -2015 0
-1804 -2016 0
-1801 -2017 0
-1802 -2018 0
-1803 -2019 0
-1804 -2020 0
-1805 -1821 0
-1806 -1822 0
-1807 -1823 0
-1808 -1824 0
-1805 -1917 0
-1806 -1918 0
-1807 -1919 0
-1808 -1920 0
-1805 -1921 0
-1806 -1922 0
-1807 -1923 0
-1808 -1924 0
-1805 -2021 0
-1806 -2022 0
-1807 -2023 0
-1808 -2024 0
-1805 -2025 0
-1806 -2026 0
-1807 -2027 0
-1808 -2028 0
-1809 -1829 0
-1810 -1830 0
-1811 -1831 0
-1812 -1832 0
-1809 -1901 0
-1810 -1902 0
-1811 -1903 0
-1812 -1904 0
-1809 -1921 0
-1810 -1922 0
-1811 -1923 0
-1812 -1924 0
-1809 -1985 0
-1810 -1986 0
-1811 -1987 0
-1812 -1988 0
-1809 -2029 0
-1810 -2030 0
-1811 -2031 0
-1812 -2032 0
-1809 -2033 0
-1810 -2034 0
-1811 -2035 0
-1812 -2036 0
-1813 -1837 0
-1814 -1838 0
-1815 -1839 0
-1816 -1840 0
-1813 -1993 0
-1814 -1994 0
-1815 -1995 0
-1816 -1996 0
-1817 -1845 0
-1818 -1846 0
-1819 -1847 0
-1820 -1848 0
-1817 -1977 0
-1818 -1978 0
-1819 -1979 0
-1820 -1980 0
-1817 -2001 0
-1818 -2002 0
-1819 -2003 0
-1820 -2004 0
-1821 -1861 0
-1822 -1862 0
-1823 -1863 0
-1824 -1864 0
-1821 -2017 0
-1822 -2018 0
-1823 -2019 0
-1824 -2020 0
-1825 -1873 0
-1826 -1874 0
-1827 -1875 0
-1828 -1876 0
-1825 -1981 0
-1826 -1982 0
-1827 -1983 0
-1828 -1984 0
-1825 -2021 0
-1826 -2022 0
-1827 -2023 0
-1828 -2024 0
-1829 -1869 0
-1830 -1870 0
-1831 -1871 0
-1832 -1872 0
-1829 -1985 0
-1830 -1986 0
-1831 -1987 0
-1832 -1988 0
-1829 -2025 0
-1830 -2026 0
-1831 -2027 0
-1832 -2028 0
-1833 -1877 0
-1834 -1878 0
-1835 -1879 0
-1836 -1880 0
-1833 -1973 0
-1834 -1974 0
-1835 -1975 0
-1836 -1976 0
-1833 -2033 0
-1834 -2034 0
-1835 -2035 0
-1836 -2036 0
-1837 -1881 0
-1838 -1882 0
-1839 -1883 0
-1840 -1884 0
-1837 -1929 0
-1838 -1930 0
-1839 -1931 0
-1840 -1932 0
-1837 -1969 0
-1838 -1970 0
-1839 -1971 0
-1840 -1972 0
-1837 -1993 0
-1838 -1994 0
-1839 -1995 0
-1840 -1996 0
-1841 -1845 0
-1842 -1846 0
-1843 -1847 0
-1844 -1848 0
-1841 -1925 0
-1842 -1926 0
-1843 -1927 0
-1844 -1928 0
-1841 -1933 0
-1842 -1934 0
-1843 -1935 0
-1844 -1936 0
-1841 -1989 0
-1842 -1990 0
-1843 -1991 0
-1844 -1992 0
-1845 -1929 0
-1846 -1930 0
-1847 -1931 0
-1848 -1932 0
-1845 -1937 0
-1846 -1938 0
-1847 -1939 0
-1848 -1940 0
-1845 -2001 0
-1846 -2002 0
-1847 -2003 0
-1848 -2004 0
-1849 -1853 0
-1850 -1854 0
-1851 -1855 0
-1852 -1856 0
-1849 -1933 0
-1850 -1934 0
-1851 -1935 0
-1852 -1936 0
-1849 -1941 0
-1850 -1942 0
-1851 -1943 0
-1852 -1944 0
-1849 -1997 0
-1850 -1998 0
-1851 -1999 0
-1852 -2000 0
-1853 -1937 0
-1854 -1938 0
-1855 -1939 0
-1856 -1940 0
-1853 -1945 0
-1854 -1946 0
-1855 -1947 0
-1856 -1948 0
-1853 -2009 0
-1854 -2010 0
-1855 -2011 0
-1856 -2012 0
-1857 -1861 0
-1858 -1862 0
-1859 -1863 0
-1860 -1864 0
-1857 -1941 0
-1858 -1942 0
-1859 -1943 0
-1860 -1944 0
-1857 -1949 0
-1858 -1950 0
-1859 -1951 0
-1860 -1952 0
-1857 -2005 0
-1858 -2006 0
-1859 -2007 0
-1860 -2008 0
-1861 -1945 0
-1862 -1946 0
-1863 -1947 0
-1864 -1948 0
-1861 -1953 0
-1862 -1954 0
-1863 -1955 0
-1864 -1956 0
-1861 -2017 0
-1862 -2018 0
-1863 -2019 0
-1864 -2020 0
-1865 -1869 0
-1866 -1870 0
-1867 -1871 0
-1868 -1872 0
-1865 -1949 0
-1866 -1950 0
-1867 -1951 0
-1868 -1952 0
-1865 -1957 0
-1866 -1958 0
-1867 -1959 0
-1868 -1960 0
-1865 -2013 0
-1866 -2014 0
-1867 -2015 0
-1868 -2016 0
-1869 -1953 0
-1870 -1954 0
-1871 -1955 0
-1872 -1956 0
-1869 -1961 0
-1870 -1962 0
-1871 -1963 0
-1872 -1964 0
-1869 -2025 0
-1870 -2026 0
-1871 -2027 0
-1872 -2028 0
-1873 -1877 0
-1874 -1878 0
-1875 -1879 0
-1876 -1880 0
-1873 -1957 0
-1874 -1958 0
-1875 -1959 0
-1876 -1960 0
-1873 -1965 0
-1874 -1966 0
-1875 -1967 0
-1876 -1968 0
-1873 -2021 0
-1874 -2022 0
-1875 -2023 0
-1876 -2024 0
-1877 -1961 0
-1878 -1962 0
-1879 -1963 0
-1880 -1964 0
-1877 -1969 0
-1878 -1970 0
-1879 -1971 0
-1880 -1972 0
-1877 -2033 0
-1878 -2034 0
-1879 -2035 0
-1880 -2036 0
-1881 -1925 0
-1882 -1926 0
-1883 -1927 0
-1884 -1928 0
-1881 -1965 0
-1882 -1966 0
-1883 -1967 0
-1884 -1968 0
-1881 -2029 0
-1882 -2030 0
-1883 -2031 0
-1884 -2032 0
-1885 -1901 0
-1886 -1902 0
-1887 -1903 0
-1888 -1904 0
-1885 -1905 0
-1886 -1906 0
-1887 -1907 0
-1888 -1908 0
-1889 -1909 0
-1890 -1910 0
-1891 -1911 0
-1892 -1912 0
-1889 -1913 0
-1890 -1914 0
-1891 -1915 0
-1892 -1916 0
-1893 -1913 0
-1894 -1914 0
-1895 -1915 0
-1896 -1916 0
-1893 -1917 0
-1894 -1918 0
-1895 -1919 0
-1896 -1920 0
-1897 -1901 0
-1898 -1902 0
-1899 -1903 0
-1900 -1904 0
-1897 -1921 0
-1898 -1922 0
-1899 -1923 0
-1900 -1924 0
-1901 -1989 0
-1902 -1990 0
-1903 -1991 0
-1904 -1992 0
-1901 -2033 0
-1902 -2034 0
-1903 -2035 0
-1904 -2036 0
-1905 -1993 0
-1906 -1994 0
-1907 -1995 0
-1908 -1996 0
-1905 -1997 0
-1906 -1998 0
-1907 -1999 0
-1908 -2000 0
-1909 -2001 0
-1910 -2002 0
-1911 -2003 0
-1912 -2004 0
-1909 -2005 0
-1910 -2006 0
-1911 -2007 0
-1912 -2008 0
-1913 -2009 0
-1914 -2010 0
-1915 -2011 0
-1916 -2012 0
-1913 -2013 0
-1914 -2014 0
-1915 -2015 0
-1916 -2016 0
-1917 -2017 0
-1918 -2018 0
-1919 -2019 0
-1920 -2020 0
-1917 -2021 0
-1918 -2022 0
-1919 -2023 0
-1920 -2024 0
-1921 -2025 0
-1922 -2026 0
-1923 -2027 0
-1924 -2028 0
-1921 -2029 0
-1922 -2030 0
-1923 -2031 0
-1924 -2032 0
-1925 -1993 0
-1926 -1994 0
-1927 -1995 0
-1928 -1996 0
-1929 -1989 0
-1930 -1990 0
-1931 -1991 0
-1932 -1992 0
-1933 -2001 0
-1934 -2002 0
-1935 -2003 0
-1936 -2004 0
-1937 -1977 0
-1938 -1978 0
-1939 -1979 0
-1940 -1980 0
-1937 -1997 0
-1938 -1998 0
-1939 -1999 0
-1940 -2000 0
-1941 -2009 0
-1942 -2010 0
-1943 -2011 0
-1944 -2012 0
-1945 -2005 0
-1946 -2006 0
-1947 -2007 0
-1948 -2008 0
-1949 -2017 0
-1950 -2018 0
-1951 -2019 0
-1952 -2020 0
-1953 -2013 0
-1954 -2014 0
-1955 -2015 0
-1956 -2016 0
-1957 -1981 0
-1958 -1982 0
-1959 -1983 0
-1960 -1984 0
-1957 -2025 0
-1958 -2026 0
-1959 -2027 0
-1960 -2028 0
-1961 -1985 0
-1962 -1986 0
-1963 -1987 0
-1964 -1988 0
-1961 -2021 0
-1962 -2022 0
-1963 -2023 0
-1964 -2024 0
-1965 -2033 0
-1966 -2034 0
-1967 -2035 0
-1968 -2036 0
-1969 -1973 0
-1970 -1974 0
-1971 -1975 0
-1972 -1976 0
-1969 -2029 0
-1970 -2030 0
-1971 -2031 0
-1972 -2032 0
-1973 -1993 0
-1974 -1994 0
-1975 -1995 0
-1976 -1996 0
-1977 -2009 0
-1978 -2010 0
-1979 -2011 0
-1980 -2012 0
-1981 -2013 0
-1982 -2014 0
-1983 -2015 0
-1984 -2016 0
-1985 -2033 0
-1986 -2034 0
-1987 -2035 0
-1988 -2036 0
1 0
598 0
611 0
