p cnf 2036 9170
5 6 7 8 0
9 11 10 12 0
15 14 13 16 0
19 17 20 18 0
23 22 21 24 0
25 26 28 27 0
29 30 31 32 0
34 35 33 36 0
38 37 39 40 0
41 44 43 42 0
47 46 45 48 0
50 49 51 52 0
53 54 55 56 0
58 57 59 60 0
61 62 63 64 0
68 66 65 67 0
69 71 70 72 0
73 75 74 76 0
77 80 78 79 0
84 83 81 82 0
86 85 88 87 0
90 91 89 92 0
93 94 95 96 0
97 98 99 100 0
101 102 103 104 0
105 106 107 108 0
109 110 111 112 0
114 113 115 116 0
118 117 119 120 0
121 122 123 124 0
126 125 127 128 0
130 129 131 132 0
135 134 133 136 0
139 138 137 140 0
143 141 142 144 0
148 147 146 145 0
149 150 152 151 0
155 154 156 153 0
157 159 158 160 0
161 162 163 164 0
166 167 165 168 0
169 170 171 172 0
173 175 176 174 0
178 177 180 179 0
183 181 182 184 0
185 187 186 188 0
189 191 190 192 0
193 195 194 196 0
199 197 198 200 0
201 202 203 204 0
205 207 208 206 0
209 210 212 211 0
213 215 214 216 0
217 219 218 220 0
221 223 224 222 0
225 227 226 228 0
229 230 231 232 0
236 233 234 235 0
239 237 240 238 0
241 243 242 244 0
248 245 246 247 0
251 249 250 252 0
254 255 253 256 0
259 258 260 257 0
261 263 262 264 0
265 267 266 268 0
271 269 272 270 0
274 275 273 276 0
277 279 278 280 0
283 281 282 284 0
286 287 285 288 0
289 291 290 292 0
294 295 293 296 0
297 298 299 300 0
301 303 302 304 0
306 307 305 308 0
310 311 309 312 0
315 313 314 316 0
317 318 319 320 0
322 321 323 324 0
326 327 325 328 0
330 329 331 332 0
333 334 335 336 0
338 339 337 340 0
342 343 341 344 0
347 345 346 348 0
350 349 351 352 0
353 354 356 355 0
357 358 359 360 0
361 362 363 364 0
367 365 368 366 0
369 371 372 370 0
373 375 374 376 0
377 378 379 380 0
381 382 383 384 0
386 385 388 387 0
389 391 390 392 0
393 395 396 394 0
397 400 398 399 0
401 402 403 404 0
405 406 407 408 0
409 410 411 412 0
413 414 415 416 0
417 418 419 420 0
422 423 421 424 0
425 426 427 428 0
429 430 431 432 0
433 434 435 436 0
437 438 439 440 0
441 442 443 444 0
445 446 447 448 0
449 451 450 452 0
455 454 453 456 0
458 459 457 460 0
461 463 462 464 0
467 466 465 468 0
470 472 469 471 0
473 474 475 476 0
477 480 478 479 0
481 483 482 484 0
487 485 486 488 0
491 489 490 492 0
495 494 493 496 0
497 498 499 500 0
503 501 502 504 0
505 506 507 508 0
509 510 511 512 0
513 514 515 516 0
517 518 519 520 0
521 523 522 524 0
525 526 527 528 0
529 531 530 532 0
535 533 536 534 0
538 539 537 540 0
543 542 544 541 0
547 546 545 548 0
549 550 551 552 0
553 555 554 556 0
557 558 559 560 0
561 562 564 563 0
565 566 568 567 0
571 570 569 572 0
575 574 573 576 0
577 578 579 580 0
584 583 582 581 0
585 586 587 588 0
589 590 591 592 0
595 594 596 593 0
602 603 604 601 0
606 607 608 605 0
615 614 616 613 0
619 618 620 617 0
623 622 624 621 0
627 626 628 625 0
632 630 631 629 0
634 635 636 633 0
638 639 640 637 0
642 643 644 641 0
646 647 648 645 0
651 650 652 649 0
655 654 656 653 0
659 658 660 657 0
663 662 664 661 0
666 667 668 665 0
670 671 672 669 0
675 676 673 674 0
678 679 680 677 0
683 684 682 681 0
687 686 688 685 0
690 691 689 692 0
694 695 693 696 0
697 698 699 700 0
703 701 702 704 0
705 707 706 708 0
710 712 709 711 0
716 715 714 713 0
719 717 718 720 0
722 723 721 724 0
727 725 726 728 0
731 729 730 732 0
736 733 734 735 0
737 738 739 740 0
741 742 743 744 0
745 746 747 748 0
749 751 750 752 0
753 755 754 756 0
759 757 760 758 0
761 764 762 763 0
765 766 768 767 0
769 770 771 772 0
774 775 773 776 0
777 778 779 780 0
784 782 783 781 0
785 787 786 788 0
789 790 791 792 0
795 793 794 796 0
797 800 798 799 0
802 801 803 804 0
806 805 807 808 0
811 810 812 809 0
814 813 815 816 0
817 818 819 820 0
821 824 822 823 0
827 826 825 828 0
830 829 831 832 0
835 834 836 833 0
837 840 839 838 0
841 842 843 844 0
845 846 848 847 0
849 850 851 852 0
854 856 855 853 0
857 860 859 858 0
863 861 862 864 0
866 865 867 868 0
870 869 871 872 0
875 874 873 876 0
877 878 879 880 0
881 882 883 884 0
887 886 885 888 0
889 891 890 892 0
893 896 894 895 0
897 899 898 900 0
901 902 903 904 0
908 905 906 907 0
911 910 912 909 0
913 915 914 916 0
920 919 918 917 0
921 922 923 924 0
928 925 926 927 0
929 930 932 931 0
934 935 933 936 0
940 939 938 937 0
941 942 943 944 0
945 946 947 948 0
949 950 951 952 0
956 955 954 953 0
958 960 959 957 0
961 963 962 964 0
968 965 967 966 0
970 969 971 972 0
973 975 976 974 0
979 977 978 980 0
981 983 982 984 0
985 987 986 988 0
989 991 990 992 0
994 993 995 996 0
997 998 999 1000 0
1003 1002 1001 1004 0
1005 1007 1006 1008 0
1011 1009 1010 1012 0
1016 1015 1014 1013 0
1018 1017 1019 1020 0
1021 1022 1023 1024 0
1025 1027 1026 1028 0
1031 1030 1029 1032 0
1034 1035 1033 1036 0
1038 1039 1037 1040 0
1041 1042 1043 1044 0
1045 1046 1047 1048 0
1049 1052 1050 1051 0
1053 1055 1054 1056 0
1057 1058 1059 1060 0
1064 1061 1063 1062 0
1065 1067 1066 1068 0
1071 1070 1072 1069 0
1074 1073 1075 1076 0
1077 1078 1080 1079 0
1084 1081 1083 1082 0
1087 1086 1085 1088 0
1091 1090 1089 1092 0
1093 1095 1096 1094 0
1099 1098 1097 1100 0
1103 1101 1102 1104 0
1107 1105 1106 1108 0
1109 1111 1110 1112 0
1113 1115 1114 1116 0
1117 1119 1118 1120 0
1123 1122 1124 1121 0
1125 1126 1127 1128 0
1130 1132 1131 1129 0
1134 1133 1135 1136 0
1138 1137 1139 1140 0
1143 1142 1141 1144 0
1146 1145 1147 1148 0
1150 1149 1152 1151 0
1153 1155 1154 1156 0
1158 1157 1160 1159 0
1162 1161 1163 1164 0
1165 1166 1167 1168 0
1169 1171 1170 1172 0
1176 1173 1175 1174 0
1177 1178 1180 1179 0
1181 1182 1183 1184 0
1185 1186 1187 1188 0
1191 1190 1189 1192 0
1194 1193 1195 1196 0
1197 1198 1199 1200 0
1201 1202 1203 1204 0
1205 1206 1207 1208 0
1209 1210 1211 1212 0
1214 1213 1215 1216 0
1217 1218 1219 1220 0
1223 1222 1221 1224 0
1226 1227 1225 1228 0
1229 1230 1231 1232 0
1234 1235 1233 1236 0
1239 1238 1237 1240 0
1241 1242 1243 1244 0
1245 1246 1248 1247 0
1249 1252 1251 1250 0
1253 1254 1255 1256 0
1257 1259 1258 1260 0
1262 1261 1264 1263 0
1265 1267 1266 1268 0
1269 1271 1270 1272 0
1274 1273 1275 1276 0
1277 1279 1278 1280 0
1281 1282 1284 1283 0
1285 1288 1287 1286 0
1289 1291 1290 1292 0
1293 1294 1296 1295 0
1297 1299 1298 1300 0
1301 1303 1302 1304 0
1306 1308 1305 1307 0
1309 1311 1312 1310 0
1313 1315 1314 1316 0
1318 1317 1320 1319 0
1323 1322 1321 1324 0
1325 1326 1327 1328 0
1329 1330 1331 1332 0
1333 1334 1335 1336 0
1337 1338 1339 1340 0
1341 1342 1343 1344 0
1347 1345 1346 1348 0
1350 1349 1352 1351 0
1355 1354 1353 1356 0
1358 1359 1357 1360 0
1361 1362 1363 1364 0
1365 1367 1366 1368 0
1369 1370 1372 1371 0
1375 1373 1376 1374 0
1378 1377 1380 1379 0
1381 1384 1383 1382 0
1386 1388 1387 1385 0
1391 1389 1392 1390 0
1393 1396 1395 1394 0
1397 1399 1398 1400 0
1401 1402 1403 1404 0
1405 1406 1407 1408 0
1412 1409 1410 1411 0
1413 1415 1414 1416 0
1418 1417 1419 1420 0
1421 1422 1423 1424 0
1425 1426 1427 1428 0
1431 1429 1432 1430 0
1433 1435 1434 1436 0
1437 1438 1440 1439 0
1443 1441 1442 1444 0
1447 1445 1446 1448 0
1451 1449 1450 1452 0
1453 1456 1455 1454 0
1457 1459 1460 1458 0
1464 1463 1461 1462 0
1466 1468 1467 1465 0
1470 1471 1469 1472 0
1473 1474 1475 1476 0
1477 1478 1479 1480 0
1481 1482 1483 1484 0
1486 1485 1487 1488 0
1492 1489 1491 1490 0
1494 1493 1495 1496 0
1497 1498 1499 1500 0
1501 1502 1503 1504 0
1505 1506 1507 1508 0
1509 1510 1511 1512 0
1513 1514 1515 1516 0
1517 1518 1519 1520 0
1521 1523 1522 1524 0
1525 1527 1526 1528 0
1529 1530 1531 1532 0
1533 1534 1535 1536 0
1537 1538 1539 1540 0
1541 1542 1543 1544 0
1545 1547 1546 1548 0
1549 1551 1550 1552 0
1553 1554 1555 1556 0
1557 1559 1558 1560 0
1561 1562 1563 1564 0
1565 1566 1567 1568 0
1569 1570 1571 1572 0
1573 1574 1575 1576 0
1577 1579 1578 1580 0
1581 1582 1583 1584 0
1585 1587 1586 1588 0
1591 1590 1592 1589 0
1594 1595 1596 1593 0
1599 1598 1600 1597 0
1603 1602 1604 1601 0
1606 1607 1608 1605 0
1611 1612 1610 1609 0
1615 1614 1616 1613 0
1619 1618 1620 1617 0
1623 1624 1622 1621 0
1627 1626 1628 1625 0
1631 1630 1632 1629 0
1634 1635 1636 1633 0
1637 1639 1638 1640 0
1641 1642 1643 1644 0
1645 1646 1647 1648 0
1649 1650 1651 1652 0
1653 1654 1655 1656 0
1657 1658 1659 1660 0
1661 1662 1663 1664 0
1665 1666 1667 1668 0
1669 1671 1670 1672 0
1673 1674 1675 1676 0
1677 1678 1679 1680 0
1681 1683 1682 1684 0
1685 1686 1687 1688 0
1689 1691 1690 1692 0
1693 1694 1695 1696 0
1697 1698 1699 1700 0
1701 1702 1703 1704 0
1705 1706 1707 1708 0
1709 1710 1711 1712 0
1713 1714 1715 1716 0
1717 1718 1719 1720 0
1721 1723 1722 1724 0
1725 1726 1727 1728 0
1729 1730 1731 1732 0
1733 1734 1735 1736 0
1737 1739 1738 1740 0
1741 1742 1743 1744 0
1745 1746 1747 1748 0
1749 1750 1751 1752 0
1753 1754 1755 1756 0
1757 1758 1759 1760 0
1761 1762 1763 1764 0
1765 1766 1767 1768 0
1769 1770 1771 1772 0
1773 1774 1775 1776 0
1777 1779 1778 1780 0
1781 1782 1783 1784 0
1785 1787 1786 1788 0
1789 1791 1790 1792 0
1793 1795 1794 1796 0
1797 1798 1799 1800 0
1801 1802 1803 1804 0
1807 1806 1805 1808 0
1809 1810 1811 1812 0
1813 1815 1814 1816 0
1817 1818 1819 1820 0
1821 1822 1823 1824 0
1825 1827 1826 1828 0
1830 1829 1831 1832 0
1833 1834 1835 1836 0
1837 1838 1839 1840 0
1841 1842 1843 1844 0
1845 1846 1847 1848 0
1849 1850 1851 1852 0
1853 1854 1855 1856 0
1857 1858 1859 1860 0
1861 1862 1863 1864 0
1865 1866 1867 1868 0
1870 1869 1871 1872 0
1873 1874 1875 1876 0
1877 1878 1879 1880 0
1881 1883 1882 1884 0
1885 1886 1887 1888 0
1889 1890 1891 1892 0
1893 1894 1895 1896 0
1897 1898 1899 1900 0
1901 1902 1903 1904 0
1905 1906 1907 1908 0
1909 1910 1911 1912 0
1913 1915 1914 1916 0
1917 1919 1918 1920 0
1923 1922 1921 1924 0
1925 1926 1927 1928 0
1929 1931 1930 1932 0
1933 1934 1935 1936 0
1937 1938 1939 1940 0
1941 1942 1943 1944 0
1945 1946 1947 1948 0
1949 1950 1951 1952 0
1953 1954 1955 1956 0
1959 1958 1957 1960 0
1961 1962 1963 1964 0
1967 1966 1965 1968 0
1969 1971 1970 1972 0
1973 1974 1975 1976 0
1977 1978 1979 1980 0
1981 1983 1982 1984 0
1985 1986 1987 1988 0
1989 1990 1991 1992 0
1993 1995 1994 1996 0
1997 1998 1999 2000 0
2001 2002 2003 2004 0
2005 2006 2007 2008 0
2009 2010 2011 2012 0
2013 2015 2014 2016 0
2017 2019 2018 2020 0
2021 2022 2023 2024 0
2026 2025 2027 2028 0
2029 2030 2031 2032 0
2033 2034 2035 2036 0
-593 -1 0
-601 -1 0
-605 -1 0
-613 -1 0
-617 -1 0
-621 -1 0
-625 -1 0
-629 -1 0
-633 -1 0
-637 -1 0
-641 -1 0
-645 -1 0
-649 -1 0
-653 -1 0
-657 -1 0
-661 -1 0
-665 -1 0
-669 -1 0
-673 -1 0
-677 -1 0
-681 -1 0
-685 -1 0
-1589 -1 0
-1593 -1 0
-1597 -1 0
-1601 -1 0
-1605 -1 0
-1609 -1 0
-1613 -1 0
-1617 -1 0
-1621 -1 0
-1625 -1 0
-1629 -1 0
-1633 -1 0
-521 -5 0
-7 -523 0
-524 -8 0
-553 -5 0
-554 -6 0
-7 -555 0
-556 -8 0
-569 -5 0
-570 -6 0
-7 -571 0
-8 -572 0
-6 -618 0
-619 -7 0
-8 -620 0
-5 -697 0
-698 -6 0
-7 -699 0
-700 -8 0
-729 -5 0
-6 -730 0
-731 -7 0
-732 -8 0
-5 -753 0
-754 -6 0
-755 -7 0
-8 -756 0
-5 -793 0
-6 -794 0
-795 -7 0
-796 -8 0
-797 -5 0
-6 -798 0
-7 -799 0
-8 -800 0
-805 -5 0
-6 -806 0
-807 -7 0
-808 -8 0
-481 -9 0
-482 -10 0
-483 -11 0
-484 -12 0
-485 -9 0
-486 -10 0
-487 -11 0
-488 -12 0
-9 -509 0
-510 -10 0
-511 -11 0
-512 -12 0
-525 -9 0
-526 -10 0
-557 -9 0
-558 -10 0
-11 -559 0
-560 -12 0
-9 -573 0
-574 -10 0
-11 -575 0
-576 -12 0
-626 -10 0
-627 -11 0
-628 -12 0
-675 -11 0
-12 -676 0
-9 -701 0
-702 -10 0
-11 -703 0
-12 -704 0
-9 -733 0
-734 -10 0
-11 -735 0
-12 -736 0
-749 -9 0
-750 -10 0
-11 -751 0
-752 -12 0
-757 -9 0
-11 -759 0
-12 -760 0
-9 -801 0
-802 -10 0
-803 -11 0
-804 -12 0
-809 -9 0
-10 -810 0
-11 -811 0
-12 -812 0
-869 -9 0
-870 -10 0
-871 -11 0
-489 -13 0
-490 -14 0
-491 -15 0
-16 -492 0
-13 -493 0
-14 -494 0
-495 -15 0
-496 -16 0
-509 -13 0
-14 -510 0
-511 -15 0
-512 -16 0
-529 -13 0
-15 -531 0
-532 -16 0
-561 -13 0
-14 -562 0
-15 -563 0
-16 -564 0
-577 -13 0
-14 -578 0
-579 -15 0
-580 -16 0
-589 -13 0
-592 -16 0
-14 -638 0
-15 -639 0
-16 -640 0
-686 -14 0
-687 -15 0
-688 -16 0
-13 -689 0
-14 -690 0
-15 -691 0
-16 -692 0
-13 -705 0
-706 -14 0
-707 -15 0
-16 -708 0
-13 -753 0
-754 -14 0
-755 -15 0
-756 -16 0
-13 -761 0
-762 -14 0
-763 -15 0
-764 -16 0
-809 -13 0
-14 -810 0
-15 -811 0
-16 -812 0
-817 -13 0
-818 -14 0
-819 -15 0
-820 -16 0
-533 -17 0
-535 -19 0
-536 -20 0
-17 -565 0
-19 -567 0
-568 -20 0
-581 -17 0
-583 -19 0
-584 -20 0
-18 -598 0
-17 -693 0
-695 -19 0
-20 -696 0
-17 -709 0
-711 -19 0
-712 -20 0
-757 -17 0
-19 -759 0
-760 -20 0
-765 -17 0
-20 -768 0
-813 -17 0
-815 -19 0
-816 -20 0
-821 -17 0
-19 -823 0
-20 -824 0
-529 -21 0
-22 -530 0
-23 -531 0
-532 -24 0
-21 -537 0
-22 -538 0
-23 -539 0
-24 -540 0
-569 -21 0
-570 -22 0
-23 -571 0
-24 -572 0
-22 -650 0
-23 -651 0
-24 -652 0
-21 -697 0
-698 -22 0
-23 -699 0
-24 -700 0
-21 -713 0
-714 -22 0
-715 -23 0
-716 -24 0
-21 -761 0
-762 -22 0
-763 -23 0
-764 -24 0
-769 -21 0
-22 -770 0
-23 -771 0
-24 -772 0
-821 -21 0
-822 -22 0
-23 -823 0
-24 -824 0
-829 -21 0
-830 -22 0
-831 -23 0
-832 -24 0
-497 -25 0
-26 -498 0
-500 -28 0
-25 -501 0
-26 -502 0
-504 -28 0
-533 -25 0
-536 -28 0
-25 -541 0
-542 -26 0
-28 -544 0
-25 -573 0
-574 -26 0
-28 -576 0
-27 -611 0
-658 -26 0
-660 -28 0
-25 -701 0
-702 -26 0
-28 -704 0
-25 -717 0
-718 -26 0
-720 -28 0
-765 -25 0
-26 -766 0
-768 -28 0
-773 -25 0
-774 -26 0
-776 -28 0
-825 -25 0
-826 -26 0
-833 -25 0
-834 -26 0
-28 -836 0
-873 -25 0
-26 -874 0
-461 -29 0
-462 -30 0
-463 -31 0
-464 -32 0
-29 -501 0
-30 -502 0
-503 -31 0
-504 -32 0
-513 -29 0
-514 -30 0
-515 -31 0
-516 -32 0
-545 -29 0
-30 -546 0
-31 -547 0
-32 -548 0
-577 -29 0
-30 -578 0
-579 -31 0
-580 -32 0
-622 -30 0
-623 -31 0
-624 -32 0
-670 -30 0
-31 -671 0
-32 -672 0
-29 -705 0
-706 -30 0
-707 -31 0
-708 -32 0
-721 -29 0
-30 -722 0
-723 -31 0
-724 -32 0
-769 -29 0
-30 -770 0
-31 -771 0
-32 -772 0
-777 -29 0
-30 -778 0
-779 -31 0
-780 -32 0
-833 -29 0
-30 -834 0
-835 -31 0
-32 -836 0
-841 -29 0
-842 -30 0
-843 -31 0
-844 -32 0
-877 -29 0
-878 -30 0
-879 -31 0
-880 -32 0
-517 -33 0
-34 -518 0
-519 -35 0
-549 -33 0
-34 -550 0
-35 -551 0
-36 -552 0
-33 -581 0
-34 -582 0
-35 -583 0
-630 -34 0
-36 -632 0
-33 -709 0
-34 -710 0
-35 -711 0
-36 -712 0
-33 -725 0
-34 -726 0
-727 -35 0
-728 -36 0
-773 -33 0
-774 -34 0
-35 -775 0
-36 -776 0
-781 -33 0
-782 -34 0
-35 -783 0
-36 -784 0
-837 -33 0
-838 -34 0
-839 -35 0
-36 -840 0
-33 -845 0
-34 -846 0
-35 -847 0
-36 -848 0
-513 -37 0
-514 -38 0
-515 -39 0
-516 -40 0
-537 -37 0
-38 -538 0
-39 -539 0
-540 -40 0
-553 -37 0
-554 -38 0
-39 -555 0
-556 -40 0
-38 -682 0
-39 -683 0
-40 -684 0
-37 -713 0
-714 -38 0
-715 -39 0
-716 -40 0
-729 -37 0
-38 -730 0
-731 -39 0
-732 -40 0
-777 -37 0
-38 -778 0
-39 -779 0
-780 -40 0
-785 -37 0
-38 -786 0
-39 -787 0
-788 -40 0
-37 -845 0
-38 -846 0
-39 -847 0
-40 -848 0
-853 -37 0
-854 -38 0
-855 -39 0
-40 -856 0
-465 -41 0
-42 -466 0
-467 -43 0
-468 -44 0
-469 -41 0
-42 -470 0
-471 -43 0
-472 -44 0
-41 -505 0
-506 -42 0
-508 -44 0
-517 -41 0
-42 -518 0
-519 -43 0
-520 -44 0
-41 -541 0
-42 -542 0
-543 -43 0
-544 -44 0
-557 -41 0
-42 -558 0
-559 -43 0
-560 -44 0
-585 -41 0
-586 -42 0
-587 -43 0
-588 -44 0
-594 -42 0
-595 -43 0
-596 -44 0
-42 -642 0
-43 -643 0
-44 -644 0
-41 -717 0
-42 -718 0
-719 -43 0
-720 -44 0
-41 -733 0
-42 -734 0
-735 -43 0
-736 -44 0
-781 -41 0
-782 -42 0
-783 -43 0
-784 -44 0
-41 -789 0
-42 -790 0
-791 -43 0
-792 -44 0
-41 -849 0
-850 -42 0
-851 -43 0
-852 -44 0
-41 -857 0
-42 -858 0
-859 -43 0
-44 -860 0
-473 -45 0
-474 -46 0
-475 -47 0
-476 -48 0
-45 -477 0
-478 -46 0
-479 -47 0
-48 -480 0
-45 -505 0
-506 -46 0
-507 -47 0
-508 -48 0
-521 -45 0
-522 -46 0
-47 -523 0
-48 -524 0
-545 -45 0
-546 -46 0
-47 -547 0
-48 -548 0
-561 -45 0
-562 -46 0
-47 -563 0
-48 -564 0
-46 -606 0
-607 -47 0
-48 -608 0
-654 -46 0
-47 -655 0
-656 -48 0
-45 -689 0
-690 -46 0
-47 -691 0
-692 -48 0
-721 -45 0
-722 -46 0
-723 -47 0
-48 -724 0
-785 -45 0
-46 -786 0
-787 -47 0
-48 -788 0
-793 -45 0
-794 -46 0
-795 -47 0
-48 -796 0
-45 -857 0
-858 -46 0
-47 -859 0
-48 -860 0
-45 -865 0
-866 -46 0
-867 -47 0
-868 -48 0
-881 -45 0
-882 -46 0
-884 -48 0
-525 -49 0
-526 -50 0
-527 -51 0
-528 -52 0
-549 -49 0
-50 -550 0
-51 -551 0
-52 -552 0
-49 -565 0
-566 -50 0
-51 -567 0
-568 -52 0
-662 -50 0
-51 -663 0
-52 -664 0
-49 -693 0
-694 -50 0
-51 -695 0
-696 -52 0
-49 -725 0
-50 -726 0
-51 -727 0
-728 -52 0
-49 -749 0
-750 -50 0
-752 -52 0
-49 -789 0
-790 -50 0
-51 -791 0
-792 -52 0
-797 -49 0
-50 -798 0
-51 -799 0
-52 -800 0
-861 -49 0
-862 -50 0
-51 -863 0
-52 -864 0
-53 -373 0
-54 -374 0
-375 -55 0
-376 -56 0
-53 -377 0
-54 -378 0
-379 -55 0
-56 -380 0
-421 -53 0
-54 -422 0
-55 -423 0
-424 -56 0
-425 -53 0
-54 -426 0
-55 -427 0
-56 -428 0
-54 -506 0
-507 -55 0
-508 -56 0
-509 -53 0
-511 -55 0
-512 -56 0
-737 -53 0
-54 -738 0
-740 -56 0
-745 -53 0
-54 -746 0
-55 -747 0
-748 -56 0
-753 -53 0
-54 -754 0
-55 -755 0
-56 -756 0
-789 -53 0
-54 -790 0
-791 -55 0
-56 -792 0
-869 -53 0
-54 -870 0
-55 -871 0
-872 -56 0
-881 -53 0
-55 -883 0
-56 -884 0
-389 -57 0
-58 -390 0
-391 -59 0
-60 -392 0
-57 -393 0
-395 -59 0
-60 -396 0
-437 -57 0
-58 -438 0
-439 -59 0
-60 -440 0
-58 -442 0
-444 -60 0
-58 -502 0
-503 -59 0
-504 -60 0
-509 -57 0
-58 -510 0
-511 -59 0
-512 -60 0
-737 -57 0
-58 -738 0
-739 -59 0
-740 -60 0
-741 -57 0
-58 -742 0
-743 -59 0
-757 -57 0
-59 -759 0
-60 -760 0
-769 -57 0
-58 -770 0
-771 -59 0
-60 -772 0
-873 -57 0
-58 -874 0
-875 -59 0
-60 -876 0
-61 -357 0
-62 -358 0
-63 -359 0
-64 -360 0
-61 -361 0
-62 -362 0
-363 -63 0
-64 -364 0
-405 -61 0
-62 -406 0
-407 -63 0
-64 -408 0
-409 -61 0
-410 -62 0
-63 -411 0
-64 -412 0
-62 -502 0
-503 -63 0
-64 -504 0
-61 -505 0
-506 -62 0
-64 -508 0
-62 -742 0
-64 -744 0
-745 -61 0
-62 -746 0
-64 -748 0
-773 -61 0
-62 -774 0
-63 -775 0
-64 -776 0
-785 -61 0
-62 -786 0
-787 -63 0
-64 -788 0
-62 -878 0
-879 -63 0
-64 -880 0
-65 -325 0
-326 -66 0
-327 -67 0
-328 -68 0
-65 -369 0
-370 -66 0
-67 -371 0
-68 -372 0
-457 -65 0
-458 -66 0
-459 -67 0
-460 -68 0
-489 -65 0
-490 -66 0
-491 -67 0
-492 -68 0
-66 -614 0
-615 -67 0
-616 -68 0
-670 -66 0
-67 -671 0
-68 -672 0
-809 -65 0
-66 -810 0
-67 -811 0
-812 -68 0
-861 -65 0
-862 -66 0
-863 -67 0
-864 -68 0
-901 -65 0
-902 -66 0
-903 -67 0
-904 -68 0
-905 -65 0
-66 -906 0
-907 -67 0
-908 -68 0
-345 -69 0
-346 -70 0
-71 -347 0
-72 -348 0
-69 -397 0
-70 -398 0
-399 -71 0
-72 -400 0
-457 -69 0
-458 -70 0
-459 -71 0
-460 -72 0
-485 -69 0
-70 -486 0
-487 -71 0
-488 -72 0
-585 -69 0
-586 -70 0
-71 -587 0
-588 -72 0
-70 -602 0
-71 -603 0
-604 -72 0
-70 -642 0
-71 -643 0
-72 -644 0
-809 -69 0
-70 -810 0
-71 -811 0
-812 -72 0
-829 -69 0
-830 -70 0
-831 -71 0
-832 -72 0
-889 -69 0
-890 -70 0
-71 -891 0
-892 -72 0
-917 -69 0
-918 -70 0
-71 -919 0
-920 -72 0
-921 -69 0
-922 -70 0
-923 -71 0
-924 -72 0
-341 -73 0
-342 -74 0
-343 -75 0
-344 -76 0
-385 -73 0
-74 -386 0
-75 -387 0
-76 -388 0
-449 -73 0
-450 -74 0
-451 -75 0
-452 -76 0
-74 -606 0
-607 -75 0
-608 -76 0
-74 -646 0
-75 -647 0
-76 -648 0
-813 -73 0
-74 -814 0
-75 -815 0
-816 -76 0
-833 -73 0
-834 -74 0
-835 -75 0
-836 -76 0
-885 -73 0
-886 -74 0
-887 -75 0
-888 -76 0
-925 -73 0
-926 -74 0
-927 -75 0
-928 -76 0
-929 -73 0
-930 -74 0
-931 -75 0
-76 -932 0
-77 -313 0
-314 -78 0
-315 -79 0
-316 -80 0
-365 -77 0
-367 -79 0
-80 -368 0
-449 -77 0
-450 -78 0
-451 -79 0
-452 -80 0
-78 -634 0
-635 -79 0
-80 -636 0
-675 -79 0
-80 -676 0
-833 -77 0
-834 -78 0
-835 -79 0
-80 -836 0
-853 -77 0
-854 -78 0
-855 -79 0
-856 -80 0
-897 -77 0
-898 -78 0
-899 -79 0
-900 -80 0
-941 -77 0
-942 -78 0
-943 -79 0
-80 -944 0
-945 -77 0
-946 -78 0
-947 -79 0
-948 -80 0
-81 -309 0
-310 -82 0
-311 -83 0
-312 -84 0
-81 -353 0
-82 -354 0
-83 -355 0
-84 -356 0
-453 -81 0
-455 -83 0
-456 -84 0
-473 -81 0
-474 -82 0
-475 -83 0
-476 -84 0
-589 -81 0
-591 -83 0
-592 -84 0
-82 -638 0
-83 -639 0
-640 -84 0
-82 -678 0
-679 -83 0
-84 -680 0
-837 -81 0
-838 -82 0
-839 -83 0
-840 -84 0
-81 -857 0
-82 -858 0
-859 -83 0
-84 -860 0
-893 -81 0
-894 -82 0
-895 -83 0
-896 -84 0
-949 -81 0
-950 -82 0
-951 -83 0
-952 -84 0
-81 -953 0
-954 -82 0
-83 -955 0
-84 -956 0
-85 -329 0
-330 -86 0
-332 -88 0
-381 -85 0
-382 -86 0
-88 -384 0
-453 -85 0
-454 -86 0
-456 -88 0
-469 -85 0
-470 -86 0
-472 -88 0
-87 -611 0
-86 -666 0
-88 -668 0
-85 -805 0
-806 -86 0
-808 -88 0
-857 -85 0
-858 -86 0
-860 -88 0
-965 -85 0
-966 -86 0
-88 -968 0
-85 -969 0
-970 -86 0
-972 -88 0
-325 -89 0
-90 -326 0
-327 -91 0
-92 -328 0
-337 -89 0
-90 -338 0
-91 -339 0
-92 -340 0
-421 -89 0
-90 -422 0
-433 -89 0
-434 -90 0
-89 -701 0
-90 -702 0
-91 -703 0
-92 -704 0
-90 -730 0
-731 -91 0
-92 -732 0
-901 -89 0
-90 -902 0
-903 -91 0
-92 -904 0
-333 -93 0
-334 -94 0
-95 -335 0
-96 -336 0
-345 -93 0
-346 -94 0
-95 -347 0
-96 -348 0
-429 -93 0
-430 -94 0
-432 -96 0
-441 -93 0
-443 -95 0
-96 -444 0
-93 -689 0
-94 -690 0
-95 -691 0
-96 -692 0
-709 -93 0
-94 -710 0
-95 -711 0
-96 -712 0
-921 -93 0
-922 -94 0
-95 -923 0
-96 -924 0
-305 -97 0
-98 -306 0
-99 -307 0
-100 -308 0
-98 -342 0
-343 -99 0
-100 -344 0
-401 -97 0
-98 -402 0
-404 -100 0
-437 -97 0
-99 -439 0
-100 -440 0
-697 -97 0
-698 -98 0
-99 -699 0
-100 -700 0
-97 -717 0
-98 -718 0
-99 -719 0
-100 -720 0
-925 -97 0
-98 -926 0
-927 -99 0
-100 -928 0
-102 -314 0
-315 -103 0
-316 -104 0
-349 -101 0
-102 -350 0
-103 -351 0
-104 -352 0
-409 -101 0
-410 -102 0
-103 -411 0
-445 -101 0
-448 -104 0
-101 -705 0
-102 -706 0
-707 -103 0
-104 -708 0
-102 -726 0
-727 -103 0
-104 -728 0
-945 -101 0
-102 -946 0
-947 -103 0
-104 -948 0
-105 -309 0
-310 -106 0
-107 -311 0
-108 -312 0
-321 -105 0
-106 -322 0
-107 -323 0
-108 -324 0
-405 -105 0
-107 -407 0
-417 -105 0
-419 -107 0
-105 -713 0
-714 -106 0
-107 -715 0
-108 -716 0
-105 -733 0
-106 -734 0
-107 -735 0
-108 -736 0
-949 -105 0
-950 -106 0
-107 -951 0
-108 -952 0
-109 -317 0
-318 -110 0
-111 -319 0
-112 -320 0
-330 -110 0
-111 -331 0
-112 -332 0
-413 -109 0
-416 -112 0
-425 -109 0
-427 -111 0
-428 -112 0
-109 -693 0
-694 -110 0
-111 -695 0
-112 -696 0
-721 -109 0
-722 -110 0
-723 -111 0
-112 -724 0
-969 -109 0
-970 -110 0
-971 -111 0
-112 -972 0
-113 -245 0
-114 -246 0
-247 -115 0
-116 -248 0
-113 -249 0
-250 -114 0
-115 -251 0
-116 -252 0
-113 -293 0
-294 -114 0
-115 -295 0
-296 -116 0
-113 -321 0
-114 -322 0
-323 -115 0
-324 -116 0
-113 -337 0
-114 -338 0
-339 -115 0
-116 -340 0
-113 -469 0
-470 -114 0
-115 -471 0
-472 -116 0
-113 -549 0
-114 -550 0
-551 -115 0
-116 -552 0
-113 -573 0
-574 -114 0
-575 -115 0
-116 -576 0
-113 -757 0
-115 -759 0
-116 -760 0
-113 -789 0
-790 -114 0
-791 -115 0
-116 -792 0
-113 -909 0
-114 -910 0
-115 -911 0
-116 -912 0
-113 -985 0
-986 -114 0
-115 -987 0
-988 -116 0
-253 -117 0
-254 -118 0
-119 -255 0
-256 -120 0
-117 -257 0
-118 -258 0
-119 -259 0
-260 -120 0
-117 -325 0
-326 -118 0
-327 -119 0
-328 -120 0
-117 -341 0
-118 -342 0
-119 -343 0
-344 -120 0
-117 -477 0
-478 -118 0
-119 -479 0
-480 -120 0
-553 -117 0
-554 -118 0
-119 -555 0
-556 -120 0
-577 -117 0
-118 -578 0
-579 -119 0
-580 -120 0
-761 -117 0
-762 -118 0
-119 -763 0
-764 -120 0
-793 -117 0
-118 -794 0
-119 -795 0
-796 -120 0
-885 -117 0
-886 -118 0
-119 -887 0
-888 -120 0
-117 -905 0
-118 -906 0
-119 -907 0
-908 -120 0
-1025 -117 0
-1026 -118 0
-1027 -119 0
-1028 -120 0
-121 -257 0
-122 -258 0
-123 -259 0
-124 -260 0
-121 -261 0
-262 -122 0
-263 -123 0
-264 -124 0
-121 -329 0
-330 -122 0
-331 -123 0
-124 -332 0
-121 -345 0
-346 -122 0
-347 -123 0
-348 -124 0
-121 -497 0
-122 -498 0
-499 -123 0
-500 -124 0
-121 -557 0
-558 -122 0
-559 -123 0
-560 -124 0
-121 -581 0
-122 -582 0
-583 -123 0
-584 -124 0
-121 -749 0
-750 -122 0
-751 -123 0
-752 -124 0
-121 -765 0
-122 -766 0
-768 -124 0
-121 -917 0
-918 -122 0
-123 -919 0
-124 -920 0
-121 -1029 0
-1030 -122 0
-1031 -123 0
-1032 -124 0
-125 -265 0
-126 -266 0
-267 -127 0
-268 -128 0
-125 -269 0
-271 -127 0
-128 -272 0
-125 -297 0
-126 -298 0
-299 -127 0
-128 -300 0
-125 -333 0
-126 -334 0
-335 -127 0
-128 -336 0
-125 -349 0
-126 -350 0
-351 -127 0
-352 -128 0
-125 -537 0
-126 -538 0
-539 -127 0
-128 -540 0
-125 -561 0
-126 -562 0
-563 -127 0
-564 -128 0
-125 -753 0
-126 -754 0
-755 -127 0
-756 -128 0
-125 -769 0
-126 -770 0
-771 -127 0
-772 -128 0
-125 -913 0
-126 -914 0
-915 -127 0
-128 -916 0
-125 -989 0
-126 -990 0
-991 -127 0
-992 -128 0
-125 -997 0
-126 -998 0
-999 -127 0
-1000 -128 0
-269 -129 0
-131 -271 0
-132 -272 0
-129 -273 0
-274 -130 0
-275 -131 0
-276 -132 0
-129 -301 0
-302 -130 0
-303 -131 0
-304 -132 0
-129 -305 0
-306 -130 0
-131 -307 0
-308 -132 0
-129 -337 0
-130 -338 0
-131 -339 0
-340 -132 0
-129 -485 0
-486 -130 0
-487 -131 0
-488 -132 0
-129 -541 0
-542 -130 0
-131 -543 0
-544 -132 0
-129 -565 0
-566 -130 0
-131 -567 0
-132 -568 0
-129 -757 0
-131 -759 0
-760 -132 0
-129 -773 0
-774 -130 0
-131 -775 0
-776 -132 0
-129 -933 0
-130 -934 0
-131 -935 0
-132 -936 0
-129 -993 0
-994 -130 0
-995 -131 0
-996 -132 0
-129 -1001 0
-1002 -130 0
-1003 -131 0
-1004 -132 0
-133 -209 0
-134 -210 0
-136 -212 0
-133 -277 0
-134 -278 0
-279 -135 0
-280 -136 0
-133 -309 0
-310 -134 0
-311 -135 0
-312 -136 0
-133 -341 0
-342 -134 0
-343 -135 0
-344 -136 0
-133 -493 0
-494 -134 0
-495 -135 0
-496 -136 0
-545 -133 0
-546 -134 0
-135 -547 0
-548 -136 0
-569 -133 0
-570 -134 0
-571 -135 0
-572 -136 0
-133 -761 0
-762 -134 0
-763 -135 0
-764 -136 0
-777 -133 0
-778 -134 0
-779 -135 0
-780 -136 0
-893 -133 0
-894 -134 0
-895 -135 0
-896 -136 0
-133 -929 0
-930 -134 0
-931 -135 0
-932 -136 0
-133 -1033 0
-1034 -134 0
-1035 -135 0
-1036 -136 0
-137 -209 0
-138 -210 0
-140 -212 0
-213 -137 0
-138 -214 0
-215 -139 0
-140 -216 0
-137 -313 0
-314 -138 0
-315 -139 0
-316 -140 0
-345 -137 0
-346 -138 0
-139 -347 0
-348 -140 0
-137 -465 0
-466 -138 0
-467 -139 0
-468 -140 0
-549 -137 0
-138 -550 0
-551 -139 0
-552 -140 0
-137 -573 0
-574 -138 0
-575 -139 0
-576 -140 0
-765 -137 0
-138 -766 0
-768 -140 0
-781 -137 0
-782 -138 0
-783 -139 0
-784 -140 0
-889 -137 0
-890 -138 0
-891 -139 0
-892 -140 0
-137 -941 0
-942 -138 0
-943 -139 0
-140 -944 0
-1037 -137 0
-1038 -138 0
-1039 -139 0
-1040 -140 0
-141 -217 0
-142 -218 0
-219 -143 0
-220 -144 0
-141 -221 0
-142 -222 0
-143 -223 0
-144 -224 0
-141 -281 0
-142 -282 0
-283 -143 0
-284 -144 0
-141 -317 0
-318 -142 0
-319 -143 0
-320 -144 0
-141 -349 0
-142 -350 0
-351 -143 0
-352 -144 0
-141 -473 0
-474 -142 0
-475 -143 0
-476 -144 0
-141 -553 0
-142 -554 0
-143 -555 0
-556 -144 0
-141 -577 0
-142 -578 0
-579 -143 0
-580 -144 0
-141 -769 0
-142 -770 0
-771 -143 0
-144 -772 0
-141 -785 0
-142 -786 0
-787 -143 0
-788 -144 0
-141 -937 0
-142 -938 0
-939 -143 0
-144 -940 0
-141 -1005 0
-142 -1006 0
-1007 -143 0
-1008 -144 0
-1013 -141 0
-1014 -142 0
-1015 -143 0
-1016 -144 0
-145 -221 0
-146 -222 0
-147 -223 0
-148 -224 0
-145 -225 0
-146 -226 0
-147 -227 0
-228 -148 0
-145 -285 0
-146 -286 0
-287 -147 0
-288 -148 0
-145 -305 0
-146 -306 0
-147 -307 0
-148 -308 0
-145 -321 0
-146 -322 0
-323 -147 0
-324 -148 0
-145 -557 0
-146 -558 0
-147 -559 0
-560 -148 0
-145 -581 0
-146 -582 0
-147 -583 0
-148 -584 0
-145 -773 0
-774 -146 0
-147 -775 0
-148 -776 0
-145 -789 0
-790 -146 0
-147 -791 0
-148 -792 0
-145 -957 0
-146 -958 0
-147 -959 0
-148 -960 0
-145 -1009 0
-1010 -146 0
-147 -1011 0
-148 -1012 0
-145 -1017 0
-146 -1018 0
-147 -1019 0
-1020 -148 0
-229 -149 0
-150 -230 0
-151 -231 0
-152 -232 0
-149 -233 0
-150 -234 0
-151 -235 0
-152 -236 0
-149 -309 0
-310 -150 0
-151 -311 0
-312 -152 0
-149 -325 0
-326 -150 0
-327 -151 0
-328 -152 0
-149 -461 0
-462 -150 0
-463 -151 0
-464 -152 0
-149 -537 0
-538 -150 0
-151 -539 0
-152 -540 0
-561 -149 0
-150 -562 0
-151 -563 0
-152 -564 0
-149 -777 0
-150 -778 0
-151 -779 0
-152 -780 0
-149 -793 0
-150 -794 0
-151 -795 0
-152 -796 0
-149 -953 0
-954 -150 0
-151 -955 0
-152 -956 0
-149 -1041 0
-1042 -150 0
-1043 -151 0
-1044 -152 0
-153 -233 0
-154 -234 0
-155 -235 0
-156 -236 0
-237 -153 0
-154 -238 0
-155 -239 0
-156 -240 0
-153 -313 0
-154 -314 0
-315 -155 0
-316 -156 0
-153 -329 0
-154 -330 0
-331 -155 0
-332 -156 0
-481 -153 0
-482 -154 0
-483 -155 0
-484 -156 0
-153 -541 0
-542 -154 0
-543 -155 0
-544 -156 0
-153 -565 0
-566 -154 0
-155 -567 0
-156 -568 0
-749 -153 0
-750 -154 0
-751 -155 0
-752 -156 0
-781 -153 0
-782 -154 0
-783 -155 0
-156 -784 0
-897 -153 0
-898 -154 0
-899 -155 0
-900 -156 0
-965 -153 0
-966 -154 0
-155 -967 0
-156 -968 0
-1045 -153 0
-1046 -154 0
-1047 -155 0
-1048 -156 0
-157 -241 0
-242 -158 0
-243 -159 0
-244 -160 0
-157 -245 0
-246 -158 0
-247 -159 0
-160 -248 0
-157 -289 0
-290 -158 0
-291 -159 0
-292 -160 0
-157 -317 0
-318 -158 0
-159 -319 0
-320 -160 0
-157 -333 0
-334 -158 0
-335 -159 0
-336 -160 0
-157 -489 0
-490 -158 0
-491 -159 0
-492 -160 0
-545 -157 0
-546 -158 0
-159 -547 0
-548 -160 0
-157 -569 0
-570 -158 0
-571 -159 0
-160 -572 0
-157 -753 0
-754 -158 0
-755 -159 0
-756 -160 0
-157 -785 0
-786 -158 0
-787 -159 0
-160 -788 0
-157 -961 0
-962 -158 0
-963 -159 0
-160 -964 0
-157 -1021 0
-1022 -158 0
-159 -1023 0
-160 -1024 0
-245 -161 0
-246 -162 0
-247 -163 0
-164 -248 0
-257 -161 0
-258 -162 0
-163 -259 0
-164 -260 0
-297 -161 0
-298 -162 0
-299 -163 0
-164 -300 0
-385 -161 0
-386 -162 0
-387 -163 0
-388 -164 0
-162 -618 0
-619 -163 0
-164 -620 0
-675 -163 0
-164 -676 0
-701 -161 0
-702 -162 0
-703 -163 0
-164 -704 0
-729 -161 0
-730 -162 0
-731 -163 0
-732 -164 0
-161 -913 0
-914 -162 0
-915 -163 0
-164 -916 0
-965 -161 0
-966 -162 0
-163 -967 0
-968 -164 0
-973 -161 0
-975 -163 0
-976 -164 0
-1049 -161 0
-1050 -162 0
-164 -1052 0
-165 -249 0
-250 -166 0
-167 -251 0
-168 -252 0
-261 -165 0
-262 -166 0
-263 -167 0
-264 -168 0
-165 -369 0
-370 -166 0
-167 -371 0
-168 -372 0
-165 -389 0
-166 -390 0
-391 -167 0
-392 -168 0
-626 -166 0
-627 -167 0
-628 -168 0
-166 -678 0
-679 -167 0
-168 -680 0
-165 -733 0
-734 -166 0
-735 -167 0
-736 -168 0
-165 -901 0
-902 -166 0
-903 -167 0
-904 -168 0
-165 -985 0
-986 -166 0
-167 -987 0
-168 -988 0
-165 -1029 0
-1031 -167 0
-1032 -168 0
-165 -1053 0
-1054 -166 0
-1055 -167 0
-168 -1056 0
-253 -169 0
-254 -170 0
-171 -255 0
-172 -256 0
-265 -169 0
-170 -266 0
-267 -171 0
-268 -172 0
-377 -169 0
-378 -170 0
-379 -171 0
-380 -172 0
-169 -397 0
-170 -398 0
-399 -171 0
-172 -400 0
-170 -634 0
-635 -171 0
-172 -636 0
-686 -170 0
-687 -171 0
-688 -172 0
-169 -705 0
-706 -170 0
-171 -707 0
-708 -172 0
-921 -169 0
-922 -170 0
-923 -171 0
-924 -172 0
-169 -989 0
-990 -170 0
-991 -171 0
-172 -992 0
-169 -1025 0
-170 -1026 0
-1027 -171 0
-1028 -172 0
-1057 -169 0
-1058 -170 0
-1059 -171 0
-172 -1060 0
-257 -173 0
-175 -259 0
-260 -176 0
-269 -173 0
-175 -271 0
-272 -176 0
-293 -173 0
-295 -175 0
-296 -176 0
-381 -173 0
-383 -175 0
-384 -176 0
-174 -598 0
-175 -639 0
-640 -176 0
-689 -173 0
-691 -175 0
-692 -176 0
-709 -173 0
-711 -175 0
-712 -176 0
-909 -173 0
-175 -911 0
-912 -176 0
-929 -173 0
-931 -175 0
-932 -176 0
-973 -173 0
-975 -175 0
-976 -176 0
-993 -173 0
-995 -175 0
-996 -176 0
-1061 -173 0
-1063 -175 0
-1064 -176 0
-209 -177 0
-210 -178 0
-180 -212 0
-269 -177 0
-180 -272 0
-281 -177 0
-282 -178 0
-284 -180 0
-353 -177 0
-354 -178 0
-180 -356 0
-179 -611 0
-650 -178 0
-180 -652 0
-697 -177 0
-698 -178 0
-700 -180 0
-717 -177 0
-718 -178 0
-720 -180 0
-917 -177 0
-918 -178 0
-180 -920 0
-937 -177 0
-178 -938 0
-180 -940 0
-977 -177 0
-978 -178 0
-980 -180 0
-997 -177 0
-998 -178 0
-180 -1000 0
-177 -1065 0
-178 -1066 0
-1068 -180 0
-213 -181 0
-182 -214 0
-183 -215 0
-184 -216 0
-273 -181 0
-182 -274 0
-183 -275 0
-276 -184 0
-181 -357 0
-182 -358 0
-183 -359 0
-360 -184 0
-181 -385 0
-182 -386 0
-183 -387 0
-184 -388 0
-182 -614 0
-615 -183 0
-184 -616 0
-658 -182 0
-659 -183 0
-660 -184 0
-181 -701 0
-702 -182 0
-183 -703 0
-704 -184 0
-181 -925 0
-182 -926 0
-927 -183 0
-184 -928 0
-181 -1001 0
-1002 -182 0
-1003 -183 0
-1004 -184 0
-181 -1037 0
-1038 -182 0
-183 -1039 0
-1040 -184 0
-1069 -181 0
-182 -1070 0
-183 -1071 0
-1072 -184 0
-185 -217 0
-186 -218 0
-219 -187 0
-220 -188 0
-185 -277 0
-186 -278 0
-279 -187 0
-188 -280 0
-185 -365 0
-367 -187 0
-188 -368 0
-185 -393 0
-395 -187 0
-396 -188 0
-622 -186 0
-623 -187 0
-624 -188 0
-186 -666 0
-667 -187 0
-188 -668 0
-185 -721 0
-186 -722 0
-723 -187 0
-724 -188 0
-185 -945 0
-946 -186 0
-947 -187 0
-948 -188 0
-185 -1005 0
-1006 -186 0
-1007 -187 0
-1008 -188 0
-185 -1033 0
-186 -1034 0
-1035 -187 0
-188 -1036 0
-1073 -185 0
-186 -1074 0
-1075 -187 0
-1076 -188 0
-189 -209 0
-210 -190 0
-192 -212 0
-189 -221 0
-190 -222 0
-223 -191 0
-192 -224 0
-301 -189 0
-302 -190 0
-303 -191 0
-304 -192 0
-189 -397 0
-398 -190 0
-399 -191 0
-400 -192 0
-630 -190 0
-192 -632 0
-670 -190 0
-191 -671 0
-672 -192 0
-705 -189 0
-706 -190 0
-707 -191 0
-708 -192 0
-725 -189 0
-726 -190 0
-727 -191 0
-728 -192 0
-933 -189 0
-934 -190 0
-191 -935 0
-936 -192 0
-953 -189 0
-954 -190 0
-955 -191 0
-956 -192 0
-977 -189 0
-978 -190 0
-979 -191 0
-980 -192 0
-1009 -189 0
-1010 -190 0
-1011 -191 0
-1012 -192 0
-189 -1077 0
-1078 -190 0
-1079 -191 0
-192 -1080 0
-193 -221 0
-194 -222 0
-223 -195 0
-196 -224 0
-233 -193 0
-194 -234 0
-235 -195 0
-196 -236 0
-289 -193 0
-290 -194 0
-291 -195 0
-292 -196 0
-193 -369 0
-370 -194 0
-371 -195 0
-372 -196 0
-642 -194 0
-643 -195 0
-196 -644 0
-682 -194 0
-683 -195 0
-196 -684 0
-713 -193 0
-714 -194 0
-715 -195 0
-716 -196 0
-733 -193 0
-734 -194 0
-735 -195 0
-736 -196 0
-193 -941 0
-942 -194 0
-943 -195 0
-944 -196 0
-961 -193 0
-962 -194 0
-963 -195 0
-196 -964 0
-981 -193 0
-982 -194 0
-983 -195 0
-984 -196 0
-1013 -193 0
-1014 -194 0
-1015 -195 0
-1016 -196 0
-1081 -193 0
-1082 -194 0
-1083 -195 0
-1084 -196 0
-225 -197 0
-198 -226 0
-199 -227 0
-228 -200 0
-237 -197 0
-198 -238 0
-199 -239 0
-200 -240 0
-197 -353 0
-198 -354 0
-199 -355 0
-200 -356 0
-197 -373 0
-198 -374 0
-375 -199 0
-376 -200 0
-594 -198 0
-595 -199 0
-596 -200 0
-198 -646 0
-199 -647 0
-200 -648 0
-197 -717 0
-718 -198 0
-199 -719 0
-720 -200 0
-949 -197 0
-950 -198 0
-951 -199 0
-952 -200 0
-197 -1017 0
-198 -1018 0
-1019 -199 0
-1020 -200 0
-197 -1045 0
-198 -1046 0
-1047 -199 0
-1048 -200 0
-1085 -197 0
-198 -1086 0
-199 -1087 0
-1088 -200 0
-229 -201 0
-230 -202 0
-231 -203 0
-204 -232 0
-201 -241 0
-242 -202 0
-203 -243 0
-244 -204 0
-201 -361 0
-362 -202 0
-363 -203 0
-364 -204 0
-201 -381 0
-382 -202 0
-203 -383 0
-204 -384 0
-602 -202 0
-203 -603 0
-204 -604 0
-654 -202 0
-203 -655 0
-656 -204 0
-201 -689 0
-690 -202 0
-203 -691 0
-204 -692 0
-201 -969 0
-970 -202 0
-203 -971 0
-972 -204 0
-201 -1021 0
-1022 -202 0
-203 -1023 0
-204 -1024 0
-201 -1041 0
-1042 -202 0
-1043 -203 0
-1044 -204 0
-1089 -201 0
-1090 -202 0
-203 -1091 0
-204 -1092 0
-233 -205 0
-206 -234 0
-207 -235 0
-208 -236 0
-245 -205 0
-206 -246 0
-247 -207 0
-208 -248 0
-285 -205 0
-286 -206 0
-287 -207 0
-288 -208 0
-365 -205 0
-367 -207 0
-368 -208 0
-206 -606 0
-607 -207 0
-608 -208 0
-662 -206 0
-207 -663 0
-664 -208 0
-693 -205 0
-694 -206 0
-207 -695 0
-696 -208 0
-721 -205 0
-722 -206 0
-723 -207 0
-724 -208 0
-905 -205 0
-906 -206 0
-207 -907 0
-908 -208 0
-205 -957 0
-206 -958 0
-207 -959 0
-960 -208 0
-981 -205 0
-982 -206 0
-983 -207 0
-984 -208 0
-205 -1093 0
-1095 -207 0
-208 -1096 0
-233 -209 0
-210 -234 0
-212 -236 0
-257 -209 0
-258 -210 0
-260 -212 0
-465 -209 0
-466 -210 0
-468 -212 0
-493 -209 0
-494 -210 0
-496 -212 0
-545 -209 0
-546 -210 0
-548 -212 0
-573 -209 0
-574 -210 0
-576 -212 0
-211 -611 0
-670 -210 0
-672 -212 0
-809 -209 0
-810 -210 0
-812 -212 0
-857 -209 0
-858 -210 0
-860 -212 0
-909 -209 0
-910 -210 0
-912 -212 0
-961 -209 0
-962 -210 0
-964 -212 0
-1049 -209 0
-1050 -210 0
-1052 -212 0
-209 -1093 0
-1096 -212 0
-1097 -209 0
-1098 -210 0
-1100 -212 0
-1141 -209 0
-1142 -210 0
-1144 -212 0
-1145 -209 0
-1146 -210 0
-212 -1148 0
-1189 -209 0
-1190 -210 0
-1192 -212 0
-237 -213 0
-214 -238 0
-215 -239 0
-216 -240 0
-213 -261 0
-262 -214 0
-215 -263 0
-264 -216 0
-213 -385 0
-214 -386 0
-215 -387 0
-216 -388 0
-213 -549 0
-550 -214 0
-551 -215 0
-216 -552 0
-214 -614 0
-615 -215 0
-216 -616 0
-213 -813 0
-214 -814 0
-215 -815 0
-816 -216 0
-213 -861 0
-862 -214 0
-863 -215 0
-864 -216 0
-213 -1053 0
-1054 -214 0
-215 -1055 0
-1056 -216 0
-213 -1145 0
-214 -1146 0
-1147 -215 0
-216 -1148 0
-241 -217 0
-242 -218 0
-243 -219 0
-220 -244 0
-265 -217 0
-218 -266 0
-267 -219 0
-220 -268 0
-217 -393 0
-395 -219 0
-396 -220 0
-217 -473 0
-474 -218 0
-475 -219 0
-220 -476 0
-577 -217 0
-578 -218 0
-579 -219 0
-220 -580 0
-622 -218 0
-623 -219 0
-220 -624 0
-218 -678 0
-219 -679 0
-220 -680 0
-217 -817 0
-818 -218 0
-819 -219 0
-820 -220 0
-217 -865 0
-866 -218 0
-867 -219 0
-868 -220 0
-217 -969 0
-970 -218 0
-219 -971 0
-972 -220 0
-217 -1057 0
-1058 -218 0
-1059 -219 0
-220 -1060 0
-217 -1149 0
-1150 -218 0
-220 -1152 0
-245 -221 0
-246 -222 0
-247 -223 0
-224 -248 0
-269 -221 0
-223 -271 0
-224 -272 0
-369 -221 0
-370 -222 0
-223 -371 0
-372 -224 0
-221 -397 0
-398 -222 0
-399 -223 0
-400 -224 0
-553 -221 0
-554 -222 0
-555 -223 0
-556 -224 0
-581 -221 0
-582 -222 0
-583 -223 0
-584 -224 0
-630 -222 0
-224 -632 0
-682 -222 0
-683 -223 0
-224 -684 0
-797 -221 0
-798 -222 0
-799 -223 0
-800 -224 0
-821 -221 0
-822 -222 0
-223 -823 0
-824 -224 0
-905 -221 0
-906 -222 0
-907 -223 0
-908 -224 0
-917 -221 0
-918 -222 0
-919 -223 0
-920 -224 0
-985 -221 0
-986 -222 0
-987 -223 0
-988 -224 0
-989 -221 0
-990 -222 0
-991 -223 0
-992 -224 0
-1049 -221 0
-1050 -222 0
-224 -1052 0
-1061 -221 0
-1062 -222 0
-223 -1063 0
-224 -1064 0
-1101 -221 0
-1102 -222 0
-1103 -223 0
-1104 -224 0
-1105 -221 0
-1106 -222 0
-1107 -223 0
-1108 -224 0
-225 -249 0
-250 -226 0
-251 -227 0
-228 -252 0
-225 -273 0
-226 -274 0
-275 -227 0
-276 -228 0
-225 -373 0
-374 -226 0
-375 -227 0
-376 -228 0
-557 -225 0
-558 -226 0
-559 -227 0
-228 -560 0
-594 -226 0
-595 -227 0
-596 -228 0
-226 -634 0
-635 -227 0
-228 -636 0
-225 -801 0
-802 -226 0
-803 -227 0
-804 -228 0
-225 -825 0
-826 -226 0
-827 -227 0
-828 -228 0
-225 -925 0
-926 -226 0
-927 -227 0
-228 -928 0
-225 -993 0
-994 -226 0
-995 -227 0
-228 -996 0
-225 -1053 0
-1054 -226 0
-1055 -227 0
-228 -1056 0
-225 -1153 0
-1154 -226 0
-1155 -227 0
-228 -1156 0
-229 -253 0
-254 -230 0
-231 -255 0
-256 -232 0
-229 -277 0
-230 -278 0
-231 -279 0
-232 -280 0
-229 -381 0
-382 -230 0
-231 -383 0
-232 -384 0
-229 -537 0
-538 -230 0
-231 -539 0
-540 -232 0
-230 -602 0
-231 -603 0
-232 -604 0
-229 -805 0
-230 -806 0
-807 -231 0
-808 -232 0
-229 -829 0
-830 -230 0
-831 -231 0
-832 -232 0
-229 -1057 0
-1058 -230 0
-1059 -231 0
-1060 -232 0
-229 -1157 0
-1158 -230 0
-232 -1160 0
-233 -257 0
-258 -234 0
-235 -259 0
-260 -236 0
-461 -233 0
-462 -234 0
-463 -235 0
-464 -236 0
-481 -233 0
-482 -234 0
-483 -235 0
-484 -236 0
-233 -541 0
-542 -234 0
-543 -235 0
-544 -236 0
-561 -233 0
-562 -234 0
-563 -235 0
-564 -236 0
-606 -234 0
-607 -235 0
-608 -236 0
-642 -234 0
-643 -235 0
-644 -236 0
-809 -233 0
-810 -234 0
-811 -235 0
-812 -236 0
-833 -233 0
-834 -234 0
-835 -235 0
-836 -236 0
-233 -913 0
-914 -234 0
-915 -235 0
-916 -236 0
-933 -233 0
-934 -234 0
-935 -235 0
-936 -236 0
-1061 -233 0
-1062 -234 0
-1063 -235 0
-1064 -236 0
-233 -1065 0
-1066 -234 0
-1067 -235 0
-1068 -236 0
-1109 -233 0
-1110 -234 0
-1111 -235 0
-1112 -236 0
-1113 -233 0
-1114 -234 0
-1115 -235 0
-1116 -236 0
-1157 -233 0
-1158 -234 0
-1160 -236 0
-233 -1161 0
-234 -1162 0
-1163 -235 0
-1164 -236 0
-237 -261 0
-262 -238 0
-263 -239 0
-264 -240 0
-237 -353 0
-238 -354 0
-355 -239 0
-356 -240 0
-237 -565 0
-566 -238 0
-567 -239 0
-568 -240 0
-238 -646 0
-647 -239 0
-648 -240 0
-237 -813 0
-238 -814 0
-815 -239 0
-816 -240 0
-237 -837 0
-838 -238 0
-839 -239 0
-840 -240 0
-237 -1069 0
-1070 -238 0
-1071 -239 0
-1072 -240 0
-237 -1161 0
-238 -1162 0
-1163 -239 0
-1164 -240 0
-265 -241 0
-242 -266 0
-267 -243 0
-244 -268 0
-241 -361 0
-362 -242 0
-363 -243 0
-364 -244 0
-489 -241 0
-490 -242 0
-491 -243 0
-244 -492 0
-545 -241 0
-242 -546 0
-547 -243 0
-548 -244 0
-242 -614 0
-243 -615 0
-244 -616 0
-654 -242 0
-243 -655 0
-244 -656 0
-241 -817 0
-818 -242 0
-819 -243 0
-820 -244 0
-842 -242 0
-843 -243 0
-844 -244 0
-241 -921 0
-922 -242 0
-923 -243 0
-924 -244 0
-241 -997 0
-998 -242 0
-999 -243 0
-244 -1000 0
-1073 -241 0
-242 -1074 0
-1075 -243 0
-244 -1076 0
-241 -1165 0
-1166 -242 0
-1167 -243 0
-1168 -244 0
-269 -245 0
-247 -271 0
-272 -248 0
-245 -365 0
-247 -367 0
-368 -248 0
-245 -385 0
-246 -386 0
-247 -387 0
-388 -248 0
-245 -549 0
-550 -246 0
-247 -551 0
-552 -248 0
-245 -569 0
-570 -246 0
-247 -571 0
-572 -248 0
-246 -618 0
-247 -619 0
-620 -248 0
-662 -246 0
-247 -663 0
-664 -248 0
-245 -821 0
-822 -246 0
-247 -823 0
-824 -248 0
-245 -845 0
-846 -246 0
-247 -847 0
-848 -248 0
-245 -929 0
-930 -246 0
-247 -931 0
-932 -248 0
-245 -941 0
-942 -246 0
-247 -943 0
-944 -248 0
-245 -1001 0
-1002 -246 0
-247 -1003 0
-1004 -248 0
-245 -1005 0
-1006 -246 0
-1007 -247 0
-1008 -248 0
-245 -1065 0
-1066 -246 0
-247 -1067 0
-1068 -248 0
-245 -1077 0
-1078 -246 0
-1079 -247 0
-1080 -248 0
-1117 -245 0
-1118 -246 0
-1119 -247 0
-1120 -248 0
-1121 -245 0
-1122 -246 0
-1123 -247 0
-1124 -248 0
-273 -249 0
-250 -274 0
-275 -251 0
-276 -252 0
-249 -389 0
-250 -390 0
-391 -251 0
-392 -252 0
-249 -469 0
-470 -250 0
-471 -251 0
-472 -252 0
-249 -573 0
-574 -250 0
-575 -251 0
-576 -252 0
-626 -250 0
-627 -251 0
-628 -252 0
-250 -666 0
-667 -251 0
-252 -668 0
-826 -250 0
-827 -251 0
-828 -252 0
-249 -849 0
-850 -250 0
-851 -251 0
-852 -252 0
-249 -949 0
-950 -250 0
-951 -251 0
-952 -252 0
-249 -1009 0
-1010 -250 0
-1011 -251 0
-1012 -252 0
-1069 -249 0
-250 -1070 0
-251 -1071 0
-252 -1072 0
-249 -1169 0
-250 -1170 0
-1171 -251 0
-1172 -252 0
-253 -277 0
-254 -278 0
-279 -255 0
-256 -280 0
-253 -397 0
-254 -398 0
-399 -255 0
-256 -400 0
-253 -553 0
-554 -254 0
-555 -255 0
-556 -256 0
-254 -634 0
-635 -255 0
-256 -636 0
-253 -829 0
-254 -830 0
-831 -255 0
-832 -256 0
-253 -853 0
-854 -254 0
-855 -255 0
-856 -256 0
-253 -1073 0
-254 -1074 0
-1075 -255 0
-1076 -256 0
-253 -1173 0
-254 -1174 0
-1175 -255 0
-256 -1176 0
-257 -477 0
-478 -258 0
-479 -259 0
-480 -260 0
-497 -257 0
-498 -258 0
-499 -259 0
-500 -260 0
-557 -257 0
-558 -258 0
-559 -259 0
-560 -260 0
-577 -257 0
-578 -258 0
-579 -259 0
-580 -260 0
-638 -258 0
-639 -259 0
-640 -260 0
-675 -259 0
-260 -676 0
-833 -257 0
-834 -258 0
-835 -259 0
-836 -260 0
-857 -257 0
-858 -258 0
-859 -259 0
-860 -260 0
-257 -937 0
-258 -938 0
-939 -259 0
-940 -260 0
-257 -957 0
-958 -258 0
-959 -259 0
-960 -260 0
-1077 -257 0
-1078 -258 0
-1079 -259 0
-1080 -260 0
-1081 -257 0
-1082 -258 0
-1083 -259 0
-1084 -260 0
-1125 -257 0
-1126 -258 0
-1127 -259 0
-1128 -260 0
-1129 -257 0
-1130 -258 0
-1131 -259 0
-1132 -260 0
-1173 -257 0
-1174 -258 0
-1175 -259 0
-1176 -260 0
-1177 -257 0
-1178 -258 0
-1179 -259 0
-1180 -260 0
-261 -369 0
-370 -262 0
-263 -371 0
-264 -372 0
-261 -581 0
-262 -582 0
-263 -583 0
-264 -584 0
-262 -678 0
-263 -679 0
-264 -680 0
-837 -261 0
-838 -262 0
-839 -263 0
-264 -840 0
-861 -261 0
-862 -262 0
-863 -263 0
-264 -864 0
-1085 -261 0
-262 -1086 0
-263 -1087 0
-1088 -264 0
-1177 -261 0
-262 -1178 0
-1179 -263 0
-264 -1180 0
-265 -377 0
-378 -266 0
-379 -267 0
-380 -268 0
-561 -265 0
-562 -266 0
-267 -563 0
-268 -564 0
-266 -646 0
-267 -647 0
-268 -648 0
-686 -266 0
-687 -267 0
-688 -268 0
-842 -266 0
-843 -267 0
-844 -268 0
-265 -865 0
-866 -266 0
-867 -267 0
-868 -268 0
-265 -945 0
-946 -266 0
-947 -267 0
-268 -948 0
-265 -1013 0
-1014 -266 0
-1015 -267 0
-268 -1016 0
-265 -1089 0
-1090 -266 0
-267 -1091 0
-268 -1092 0
-265 -1181 0
-1182 -266 0
-267 -1183 0
-1184 -268 0
-269 -353 0
-355 -271 0
-356 -272 0
-269 -381 0
-383 -271 0
-384 -272 0
-269 -537 0
-539 -271 0
-540 -272 0
-269 -565 0
-567 -271 0
-568 -272 0
-270 -598 0
-651 -271 0
-272 -652 0
-269 -797 0
-799 -271 0
-800 -272 0
-269 -845 0
-847 -271 0
-848 -272 0
-269 -953 0
-955 -271 0
-956 -272 0
-269 -965 0
-967 -271 0
-968 -272 0
-269 -1017 0
-1019 -271 0
-1020 -272 0
-269 -1021 0
-1023 -271 0
-1024 -272 0
-269 -1081 0
-1083 -271 0
-1084 -272 0
-269 -1093 0
-1095 -271 0
-1096 -272 0
-269 -1133 0
-1135 -271 0
-1136 -272 0
-269 -1137 0
-1139 -271 0
-1140 -272 0
-273 -357 0
-274 -358 0
-275 -359 0
-360 -276 0
-273 -485 0
-486 -274 0
-487 -275 0
-488 -276 0
-273 -541 0
-542 -274 0
-275 -543 0
-276 -544 0
-602 -274 0
-275 -603 0
-276 -604 0
-658 -274 0
-659 -275 0
-276 -660 0
-273 -801 0
-802 -274 0
-803 -275 0
-804 -276 0
-850 -274 0
-851 -275 0
-852 -276 0
-273 -901 0
-902 -274 0
-903 -275 0
-276 -904 0
-1085 -273 0
-274 -1086 0
-275 -1087 0
-276 -1088 0
-273 -1185 0
-1186 -274 0
-275 -1187 0
-1188 -276 0
-365 -277 0
-367 -279 0
-368 -280 0
-569 -277 0
-570 -278 0
-279 -571 0
-280 -572 0
-278 -666 0
-667 -279 0
-280 -668 0
-805 -277 0
-278 -806 0
-807 -279 0
-808 -280 0
-853 -277 0
-854 -278 0
-855 -279 0
-856 -280 0
-1089 -277 0
-278 -1090 0
-279 -1091 0
-1092 -280 0
-1189 -277 0
-278 -1190 0
-279 -1191 0
-280 -1192 0
-281 -317 0
-318 -282 0
-283 -319 0
-320 -284 0
-437 -281 0
-282 -438 0
-283 -439 0
-440 -284 0
-529 -281 0
-282 -530 0
-283 -531 0
-532 -284 0
-281 -697 0
-698 -282 0
-283 -699 0
-284 -700 0
-281 -1021 0
-1022 -282 0
-283 -1023 0
-1024 -284 0
-281 -1101 0
-1102 -282 0
-283 -1103 0
-1104 -284 0
-281 -1149 0
-282 -1150 0
-1152 -284 0
-305 -285 0
-286 -306 0
-287 -307 0
-288 -308 0
-425 -285 0
-426 -286 0
-427 -287 0
-428 -288 0
-525 -285 0
-526 -286 0
-527 -287 0
-528 -288 0
-285 -693 0
-694 -286 0
-287 -695 0
-288 -696 0
-869 -285 0
-287 -871 0
-872 -288 0
-1001 -285 0
-1002 -286 0
-287 -1003 0
-1004 -288 0
-1105 -285 0
-1106 -286 0
-287 -1107 0
-288 -1108 0
-285 -1153 0
-1154 -286 0
-287 -1155 0
-1156 -288 0
-333 -289 0
-290 -334 0
-291 -335 0
-292 -336 0
-405 -289 0
-290 -406 0
-291 -407 0
-408 -292 0
-513 -289 0
-290 -514 0
-291 -515 0
-516 -292 0
-289 -713 0
-290 -714 0
-291 -715 0
-292 -716 0
-877 -289 0
-878 -290 0
-291 -879 0
-880 -292 0
-289 -989 0
-290 -990 0
-291 -991 0
-992 -292 0
-1117 -289 0
-290 -1118 0
-1119 -291 0
-1120 -292 0
-289 -1165 0
-290 -1166 0
-291 -1167 0
-1168 -292 0
-321 -293 0
-294 -322 0
-323 -295 0
-296 -324 0
-441 -293 0
-294 -442 0
-443 -295 0
-444 -296 0
-533 -293 0
-535 -295 0
-536 -296 0
-293 -709 0
-294 -710 0
-711 -295 0
-296 -712 0
-873 -293 0
-294 -874 0
-875 -295 0
-876 -296 0
-293 -1017 0
-294 -1018 0
-1019 -295 0
-296 -1020 0
-1121 -293 0
-294 -1122 0
-1123 -295 0
-1124 -296 0
-293 -1169 0
-294 -1170 0
-1171 -295 0
-349 -297 0
-298 -350 0
-299 -351 0
-300 -352 0
-421 -297 0
-422 -298 0
-424 -300 0
-521 -297 0
-522 -298 0
-299 -523 0
-524 -300 0
-729 -297 0
-730 -298 0
-731 -299 0
-300 -732 0
-881 -297 0
-882 -298 0
-883 -299 0
-884 -300 0
-1005 -297 0
-1006 -298 0
-1007 -299 0
-300 -1008 0
-1133 -297 0
-298 -1134 0
-1135 -299 0
-1136 -300 0
-297 -1181 0
-1182 -298 0
-299 -1183 0
-338 -302 0
-303 -339 0
-304 -340 0
-409 -301 0
-410 -302 0
-303 -411 0
-412 -304 0
-517 -301 0
-518 -302 0
-303 -519 0
-301 -725 0
-726 -302 0
-303 -727 0
-304 -728 0
-301 -985 0
-986 -302 0
-303 -987 0
-304 -988 0
-301 -1137 0
-1138 -302 0
-303 -1139 0
-1140 -304 0
-301 -1185 0
-1186 -302 0
-1188 -304 0
-437 -305 0
-438 -306 0
-307 -439 0
-440 -308 0
-305 -465 0
-466 -306 0
-307 -467 0
-468 -308 0
-305 -757 0
-307 -759 0
-308 -760 0
-305 -789 0
-790 -306 0
-791 -307 0
-308 -792 0
-1053 -305 0
-1054 -306 0
-1055 -307 0
-308 -1056 0
-305 -1093 0
-1095 -307 0
-308 -1096 0
-305 -1101 0
-1102 -306 0
-307 -1103 0
-308 -1104 0
-1194 -306 0
-1195 -307 0
-1196 -308 0
-417 -309 0
-418 -310 0
-420 -312 0
-473 -309 0
-310 -474 0
-475 -311 0
-476 -312 0
-590 -310 0
-592 -312 0
-309 -761 0
-310 -762 0
-763 -311 0
-764 -312 0
-793 -309 0
-310 -794 0
-795 -311 0
-312 -796 0
-309 -1061 0
-310 -1062 0
-311 -1063 0
-312 -1064 0
-1098 -310 0
-1099 -311 0
-1100 -312 0
-1217 -309 0
-310 -1218 0
-1219 -311 0
-1220 -312 0
-445 -313 0
-446 -314 0
-315 -447 0
-749 -313 0
-750 -314 0
-315 -751 0
-765 -313 0
-314 -766 0
-768 -316 0
-313 -1049 0
-314 -1050 0
-316 -1052 0
-1109 -313 0
-1110 -314 0
-315 -1111 0
-316 -1112 0
-1221 -313 0
-314 -1222 0
-315 -1223 0
-1224 -316 0
-425 -317 0
-426 -318 0
-427 -319 0
-428 -320 0
-317 -461 0
-318 -462 0
-463 -319 0
-464 -320 0
-753 -317 0
-318 -754 0
-755 -319 0
-756 -320 0
-317 -769 0
-318 -770 0
-771 -319 0
-772 -320 0
-317 -1057 0
-318 -1058 0
-1059 -319 0
-320 -1060 0
-317 -1065 0
-318 -1066 0
-319 -1067 0
-320 -1068 0
-1105 -317 0
-318 -1106 0
-1107 -319 0
-320 -1108 0
-1197 -317 0
-1198 -318 0
-1199 -319 0
-1200 -320 0
-405 -321 0
-322 -406 0
-323 -407 0
-324 -408 0
-321 -481 0
-482 -322 0
-323 -483 0
-324 -484 0
-757 -321 0
-323 -759 0
-324 -760 0
-773 -321 0
-774 -322 0
-323 -775 0
-776 -324 0
-321 -1061 0
-1062 -322 0
-323 -1063 0
-324 -1064 0
-1069 -321 0
-1070 -322 0
-323 -1071 0
-1072 -324 0
-1117 -321 0
-1118 -322 0
-323 -1119 0
-324 -1120 0
-1201 -321 0
-1202 -322 0
-323 -1203 0
-1204 -324 0
-433 -325 0
-434 -326 0
-435 -327 0
-489 -325 0
-326 -490 0
-327 -491 0
-492 -328 0
-325 -761 0
-326 -762 0
-327 -763 0
-328 -764 0
-777 -325 0
-326 -778 0
-327 -779 0
-328 -780 0
-325 -1077 0
-326 -1078 0
-327 -1079 0
-328 -1080 0
-1113 -325 0
-1114 -326 0
-327 -1115 0
-1116 -328 0
-1225 -325 0
-1226 -326 0
-327 -1227 0
-1228 -328 0
-413 -329 0
-414 -330 0
-415 -331 0
-416 -332 0
-469 -329 0
-470 -330 0
-331 -471 0
-332 -472 0
-765 -329 0
-330 -766 0
-332 -768 0
-781 -329 0
-782 -330 0
-783 -331 0
-332 -784 0
-329 -1065 0
-1066 -330 0
-331 -1067 0
-332 -1068 0
-1125 -329 0
-1126 -330 0
-1127 -331 0
-332 -1128 0
-1229 -329 0
-1230 -330 0
-1231 -331 0
-1232 -332 0
-441 -333 0
-334 -442 0
-443 -335 0
-336 -444 0
-333 -477 0
-478 -334 0
-335 -479 0
-336 -480 0
-333 -769 0
-334 -770 0
-335 -771 0
-336 -772 0
-785 -333 0
-334 -786 0
-335 -787 0
-336 -788 0
-1073 -333 0
-334 -1074 0
-335 -1075 0
-336 -1076 0
-333 -1081 0
-334 -1082 0
-335 -1083 0
-336 -1084 0
-1121 -333 0
-334 -1122 0
-335 -1123 0
-1124 -336 0
-1205 -333 0
-1206 -334 0
-1207 -335 0
-1208 -336 0
-421 -337 0
-422 -338 0
-423 -339 0
-424 -340 0
-337 -497 0
-338 -498 0
-499 -339 0
-500 -340 0
-337 -773 0
-774 -338 0
-339 -775 0
-340 -776 0
-337 -789 0
-790 -338 0
-791 -339 0
-340 -792 0
-337 -1077 0
-1078 -338 0
-1079 -339 0
-340 -1080 0
-1085 -337 0
-338 -1086 0
-1087 -339 0
-1088 -340 0
-1133 -337 0
-338 -1134 0
-1135 -339 0
-1136 -340 0
-1209 -337 0
-1210 -338 0
-1211 -339 0
-1212 -340 0
-401 -341 0
-342 -402 0
-404 -344 0
-777 -341 0
-778 -342 0
-343 -779 0
-344 -780 0
-793 -341 0
-342 -794 0
-343 -795 0
-344 -796 0
-341 -1093 0
-1095 -343 0
-344 -1096 0
-1129 -341 0
-1130 -342 0
-343 -1131 0
-344 -1132 0
-1233 -341 0
-342 -1234 0
-343 -1235 0
-1236 -344 0
-429 -345 0
-346 -430 0
-431 -347 0
-432 -348 0
-485 -345 0
-346 -486 0
-487 -347 0
-348 -488 0
-586 -346 0
-347 -587 0
-588 -348 0
-345 -749 0
-346 -750 0
-751 -347 0
-752 -348 0
-781 -345 0
-782 -346 0
-783 -347 0
-348 -784 0
-345 -1081 0
-346 -1082 0
-347 -1083 0
-348 -1084 0
-1141 -345 0
-346 -1142 0
-347 -1143 0
-348 -1144 0
-1237 -345 0
-1238 -346 0
-1239 -347 0
-1240 -348 0
-410 -350 0
-351 -411 0
-352 -412 0
-349 -493 0
-494 -350 0
-495 -351 0
-352 -496 0
-349 -753 0
-754 -350 0
-755 -351 0
-756 -352 0
-349 -785 0
-350 -786 0
-787 -351 0
-352 -788 0
-349 -1049 0
-350 -1050 0
-352 -1052 0
-1089 -349 0
-1090 -350 0
-351 -1091 0
-352 -1092 0
-349 -1137 0
-1138 -350 0
-1139 -351 0
-1140 -352 0
-1214 -350 0
-351 -1215 0
-1216 -352 0
-453 -353 0
-454 -354 0
-455 -355 0
-456 -356 0
-354 -618 0
-619 -355 0
-356 -620 0
-678 -354 0
-679 -355 0
-356 -680 0
-965 -353 0
-966 -354 0
-355 -967 0
-968 -356 0
-1145 -353 0
-1146 -354 0
-1147 -355 0
-356 -1148 0
-1249 -353 0
-356 -1252 0
-626 -358 0
-627 -359 0
-360 -628 0
-358 -682 0
-359 -683 0
-360 -684 0
-901 -357 0
-902 -358 0
-903 -359 0
-360 -904 0
-1153 -357 0
-1154 -358 0
-1155 -359 0
-1193 -357 0
-1194 -358 0
-1195 -359 0
-1196 -360 0
-1221 -357 0
-1222 -358 0
-359 -1223 0
-360 -1224 0
-1253 -357 0
-1255 -359 0
-630 -362 0
-364 -632 0
-686 -362 0
-687 -363 0
-364 -688 0
-921 -361 0
-922 -362 0
-923 -363 0
-924 -364 0
-361 -1149 0
-362 -1150 0
-1152 -364 0
-1197 -361 0
-1198 -362 0
-363 -1199 0
-1200 -364 0
-1217 -361 0
-1218 -362 0
-363 -1219 0
-364 -1220 0
-1253 -361 0
-363 -1255 0
-1256 -364 0
-365 -449 0
-451 -367 0
-452 -368 0
-366 -598 0
-635 -367 0
-368 -636 0
-365 -929 0
-367 -931 0
-932 -368 0
-365 -1157 0
-368 -1160 0
-365 -1257 0
-1259 -367 0
-368 -1260 0
-457 -369 0
-458 -370 0
-459 -371 0
-460 -372 0
-370 -614 0
-615 -371 0
-616 -372 0
-370 -650 0
-651 -371 0
-372 -652 0
-917 -369 0
-918 -370 0
-919 -371 0
-920 -372 0
-1161 -369 0
-370 -1162 0
-1163 -371 0
-1164 -372 0
-1273 -369 0
-370 -1274 0
-1275 -371 0
-1276 -372 0
-374 -618 0
-375 -619 0
-376 -620 0
-658 -374 0
-375 -659 0
-376 -660 0
-925 -373 0
-374 -926 0
-375 -927 0
-376 -928 0
-1169 -373 0
-374 -1170 0
-375 -1171 0
-1172 -376 0
-1201 -373 0
-1202 -374 0
-1203 -375 0
-1204 -376 0
-1229 -373 0
-1230 -374 0
-375 -1231 0
-1232 -376 0
-1277 -373 0
-1278 -374 0
-375 -1279 0
-622 -378 0
-379 -623 0
-380 -624 0
-662 -378 0
-379 -663 0
-380 -664 0
-945 -377 0
-946 -378 0
-379 -947 0
-948 -380 0
-377 -1165 0
-378 -1166 0
-379 -1167 0
-1168 -380 0
-1205 -377 0
-1206 -378 0
-1207 -379 0
-1208 -380 0
-1225 -377 0
-1226 -378 0
-379 -1227 0
-380 -1228 0
-1277 -377 0
-379 -1279 0
-1280 -380 0
-381 -453 0
-454 -382 0
-455 -383 0
-456 -384 0
-630 -382 0
-384 -632 0
-382 -666 0
-667 -383 0
-384 -668 0
-381 -953 0
-954 -382 0
-383 -955 0
-956 -384 0
-381 -1173 0
-1174 -382 0
-383 -1175 0
-384 -1176 0
-381 -1281 0
-1282 -382 0
-1283 -383 0
-384 -1284 0
-449 -385 0
-450 -386 0
-451 -387 0
-452 -388 0
-386 -646 0
-647 -387 0
-388 -648 0
-386 -682 0
-387 -683 0
-388 -684 0
-385 -941 0
-942 -386 0
-943 -387 0
-944 -388 0
-1177 -385 0
-1178 -386 0
-1179 -387 0
-388 -1180 0
-1297 -385 0
-1298 -386 0
-1299 -387 0
-1300 -388 0
-594 -390 0
-595 -391 0
-596 -392 0
-390 -650 0
-391 -651 0
-392 -652 0
-949 -389 0
-950 -390 0
-391 -951 0
-952 -392 0
-389 -1185 0
-1186 -390 0
-391 -1187 0
-1188 -392 0
-1209 -389 0
-1210 -390 0
-1211 -391 0
-1212 -392 0
-389 -1237 0
-1238 -390 0
-391 -1239 0
-1240 -392 0
-1301 -389 0
-1302 -390 0
-1304 -392 0
-394 -598 0
-395 -655 0
-656 -396 0
-969 -393 0
-395 -971 0
-396 -972 0
-393 -1181 0
-395 -1183 0
-1184 -396 0
-1213 -393 0
-395 -1215 0
-1216 -396 0
-1233 -393 0
-395 -1235 0
-1236 -396 0
-1301 -393 0
-395 -1303 0
-1304 -396 0
-457 -397 0
-458 -398 0
-459 -399 0
-460 -400 0
-398 -602 0
-399 -603 0
-604 -400 0
-662 -398 0
-399 -663 0
-400 -664 0
-905 -397 0
-398 -906 0
-399 -907 0
-400 -908 0
-1189 -397 0
-398 -1190 0
-399 -1191 0
-400 -1192 0
-1305 -397 0
-1306 -398 0
-399 -1307 0
-1308 -400 0
-403 -415 0
-404 -416 0
-401 -697 0
-698 -402 0
-403 -699 0
-404 -700 0
-402 -814 0
-403 -815 0
-406 -442 0
-443 -407 0
-408 -444 0
-405 -505 0
-506 -406 0
-507 -407 0
-508 -408 0
-405 -733 0
-734 -406 0
-407 -735 0
-408 -736 0
-866 -406 0
-407 -867 0
-408 -868 0
-405 -1217 0
-1218 -406 0
-407 -1219 0
-408 -1220 0
-410 -422 0
-423 -411 0
-424 -412 0
-410 -502 0
-503 -411 0
-504 -412 0
-409 -705 0
-410 -706 0
-707 -411 0
-412 -708 0
-826 -410 0
-827 -411 0
-828 -412 0
-409 -1221 0
-410 -1222 0
-411 -1223 0
-1224 -412 0
-413 -693 0
-415 -695 0
-414 -806 0
-807 -415 0
-418 -430 0
-419 -431 0
-420 -432 0
-417 -713 0
-418 -714 0
-420 -716 0
-417 -837 0
-418 -838 0
-419 -839 0
-420 -840 0
-509 -421 0
-422 -510 0
-511 -423 0
-424 -512 0
-421 -701 0
-422 -702 0
-423 -703 0
-424 -704 0
-818 -422 0
-819 -423 0
-424 -820 0
-421 -1225 0
-422 -1226 0
-1227 -423 0
-424 -1228 0
-425 -437 0
-426 -438 0
-427 -439 0
-428 -440 0
-425 -505 0
-506 -426 0
-507 -427 0
-425 -721 0
-426 -722 0
-427 -723 0
-428 -724 0
-425 -849 0
-426 -850 0
-427 -851 0
-852 -428 0
-425 -1229 0
-426 -1230 0
-427 -1231 0
-1232 -428 0
-429 -709 0
-430 -710 0
-431 -711 0
-432 -712 0
-830 -430 0
-431 -831 0
-434 -446 0
-435 -447 0
-436 -448 0
-433 -729 0
-435 -731 0
-436 -732 0
-435 -863 0
-436 -864 0
-437 -501 0
-438 -502 0
-503 -439 0
-504 -440 0
-437 -717 0
-438 -718 0
-439 -719 0
-720 -440 0
-842 -438 0
-843 -439 0
-844 -440 0
-437 -1233 0
-438 -1234 0
-1235 -439 0
-440 -1236 0
-509 -441 0
-512 -444 0
-441 -689 0
-690 -442 0
-443 -691 0
-444 -692 0
-802 -442 0
-443 -803 0
-444 -804 0
-441 -1237 0
-1238 -442 0
-443 -1239 0
-444 -1240 0
-445 -725 0
-446 -726 0
-727 -447 0
-448 -728 0
-446 -854 0
-855 -447 0
-448 -856 0
-449 -1245 0
-450 -1246 0
-451 -1247 0
-452 -1248 0
-449 -1309 0
-451 -1311 0
-1312 -452 0
-1261 -453 0
-454 -1262 0
-456 -1264 0
-453 -1269 0
-454 -1270 0
-455 -1271 0
-1272 -456 0
-457 -1285 0
-458 -1286 0
-459 -1287 0
-460 -1288 0
-457 -1293 0
-458 -1294 0
-459 -1295 0
-460 -1296 0
-577 -461 0
-462 -578 0
-579 -463 0
-464 -580 0
-1057 -461 0
-462 -1058 0
-1059 -463 0
-464 -1060 0
-461 -1217 0
-462 -1218 0
-463 -1219 0
-1220 -464 0
-1313 -461 0
-462 -1314 0
-463 -1315 0
-1316 -464 0
-461 -1337 0
-462 -1338 0
-463 -1339 0
-464 -1340 0
-557 -465 0
-466 -558 0
-559 -467 0
-560 -468 0
-585 -465 0
-586 -466 0
-467 -587 0
-588 -468 0
-889 -465 0
-890 -466 0
-891 -467 0
-892 -468 0
-1053 -465 0
-1054 -466 0
-1055 -467 0
-468 -1056 0
-1221 -465 0
-466 -1222 0
-467 -1223 0
-1224 -468 0
-1317 -465 0
-466 -1318 0
-1320 -468 0
-465 -1341 0
-466 -1342 0
-1343 -467 0
-1344 -468 0
-469 -541 0
-470 -542 0
-543 -471 0
-472 -544 0
-470 -874 0
-875 -471 0
-876 -472 0
-1029 -469 0
-470 -1030 0
-1031 -471 0
-1032 -472 0
-469 -1065 0
-1066 -470 0
-471 -1067 0
-472 -1068 0
-1317 -469 0
-470 -1318 0
-1320 -472 0
-561 -473 0
-474 -562 0
-475 -563 0
-476 -564 0
-473 -1033 0
-474 -1034 0
-475 -1035 0
-476 -1036 0
-473 -1061 0
-474 -1062 0
-475 -1063 0
-476 -1064 0
-1321 -473 0
-474 -1322 0
-1323 -475 0
-545 -477 0
-478 -546 0
-479 -547 0
-480 -548 0
-885 -477 0
-478 -886 0
-887 -479 0
-888 -480 0
-1073 -477 0
-478 -1074 0
-1075 -479 0
-480 -1076 0
-1225 -477 0
-1226 -478 0
-1227 -479 0
-1228 -480 0
-1321 -477 0
-478 -1322 0
-1324 -480 0
-1345 -477 0
-1346 -478 0
-479 -1347 0
-1348 -480 0
-481 -573 0
-482 -574 0
-483 -575 0
-576 -484 0
-897 -481 0
-898 -482 0
-899 -483 0
-900 -484 0
-1069 -481 0
-482 -1070 0
-483 -1071 0
-484 -1072 0
-1230 -482 0
-483 -1231 0
-1232 -484 0
-1325 -481 0
-482 -1326 0
-1327 -483 0
-1328 -484 0
-1349 -481 0
-482 -1350 0
-1351 -483 0
-1352 -484 0
-557 -485 0
-486 -558 0
-487 -559 0
-560 -488 0
-485 -1037 0
-1038 -486 0
-487 -1039 0
-488 -1040 0
-485 -1081 0
-486 -1082 0
-487 -1083 0
-488 -1084 0
-1325 -485 0
-486 -1326 0
-487 -1327 0
-1328 -488 0
-577 -489 0
-490 -578 0
-491 -579 0
-492 -580 0
-878 -490 0
-879 -491 0
-880 -492 0
-489 -1041 0
-490 -1042 0
-491 -1043 0
-1044 -492 0
-489 -1077 0
-490 -1078 0
-491 -1079 0
-492 -1080 0
-1329 -489 0
-491 -1331 0
-1332 -492 0
-561 -493 0
-562 -494 0
-495 -563 0
-564 -496 0
-590 -494 0
-495 -591 0
-592 -496 0
-893 -493 0
-894 -494 0
-495 -895 0
-896 -496 0
-1089 -493 0
-494 -1090 0
-495 -1091 0
-1092 -496 0
-1233 -493 0
-494 -1234 0
-495 -1235 0
-1236 -496 0
-1330 -494 0
-495 -1331 0
-1332 -496 0
-1353 -493 0
-1354 -494 0
-495 -1355 0
-1356 -496 0
-497 -541 0
-542 -498 0
-499 -543 0
-500 -544 0
-1085 -497 0
-1086 -498 0
-499 -1087 0
-500 -1088 0
-1237 -497 0
-1238 -498 0
-499 -1239 0
-500 -1240 0
-1333 -497 0
-1334 -498 0
-499 -1335 0
-1336 -500 0
-1357 -497 0
-1358 -498 0
-499 -1359 0
-1360 -500 0
-737 -501 0
-738 -502 0
-503 -739 0
-740 -504 0
-745 -501 0
-746 -502 0
-503 -747 0
-501 -1149 0
-1150 -502 0
-504 -1152 0
-501 -1185 0
-1186 -502 0
-503 -1187 0
-504 -1188 0
-1193 -501 0
-503 -1195 0
-1196 -504 0
-1213 -501 0
-1214 -502 0
-503 -1215 0
-504 -1216 0
-737 -505 0
-506 -738 0
-507 -739 0
-740 -508 0
-508 -744 0
-1153 -505 0
-506 -1154 0
-507 -1155 0
-508 -1156 0
-505 -1165 0
-506 -1166 0
-507 -1167 0
-508 -1168 0
-1197 -505 0
-506 -1198 0
-507 -1199 0
-1200 -508 0
-506 -1202 0
-507 -1203 0
-508 -1204 0
-741 -509 0
-743 -511 0
-744 -512 0
-745 -509 0
-511 -747 0
-748 -512 0
-1169 -509 0
-510 -1170 0
-511 -1171 0
-512 -1172 0
-509 -1181 0
-1182 -510 0
-511 -1183 0
-512 -1184 0
-1206 -510 0
-511 -1207 0
-512 -1208 0
-1210 -510 0
-511 -1211 0
-512 -1212 0
-622 -514 0
-623 -515 0
-516 -624 0
-514 -682 0
-515 -683 0
-516 -684 0
-513 -989 0
-514 -990 0
-991 -515 0
-516 -992 0
-513 -1337 0
-514 -1338 0
-515 -1339 0
-516 -1340 0
-594 -518 0
-519 -595 0
-630 -518 0
-520 -632 0
-517 -985 0
-986 -518 0
-519 -987 0
-520 -988 0
-517 -993 0
-994 -518 0
-519 -995 0
-520 -996 0
-517 -1341 0
-518 -1342 0
-519 -1343 0
-520 -1344 0
-522 -618 0
-619 -523 0
-524 -620 0
-654 -522 0
-523 -655 0
-524 -656 0
-521 -997 0
-998 -522 0
-999 -523 0
-1000 -524 0
-521 -1005 0
-1006 -522 0
-1007 -523 0
-521 -1345 0
-1346 -522 0
-523 -1347 0
-1348 -524 0
-626 -526 0
-527 -627 0
-628 -528 0
-662 -526 0
-527 -663 0
-528 -664 0
-525 -1001 0
-1002 -526 0
-528 -1004 0
-525 -1009 0
-1010 -526 0
-527 -1011 0
-528 -1012 0
-525 -1349 0
-526 -1350 0
-527 -1351 0
-1352 -528 0
-530 -650 0
-531 -651 0
-532 -652 0
-686 -530 0
-687 -531 0
-532 -688 0
-529 -1013 0
-1014 -530 0
-1015 -531 0
-532 -1016 0
-529 -1021 0
-1022 -530 0
-1023 -531 0
-532 -1024 0
-529 -1353 0
-1354 -530 0
-1355 -531 0
-1356 -532 0
-534 -598 0
-659 -535 0
-536 -660 0
-533 -1017 0
-1019 -535 0
-536 -1020 0
-1359 -535 0
-536 -1360 0
-537 -697 0
-698 -538 0
-699 -539 0
-700 -540 0
-729 -537 0
-538 -730 0
-731 -539 0
-732 -540 0
-537 -913 0
-914 -538 0
-539 -915 0
-540 -916 0
-537 -1021 0
-1022 -538 0
-539 -1023 0
-540 -1024 0
-537 -1337 0
-1338 -538 0
-1340 -540 0
-1361 -537 0
-1362 -538 0
-1363 -539 0
-540 -1364 0
-541 -701 0
-702 -542 0
-703 -543 0
-704 -544 0
-733 -541 0
-734 -542 0
-543 -735 0
-544 -736 0
-965 -541 0
-966 -542 0
-543 -967 0
-544 -968 0
-1221 -541 0
-542 -1222 0
-543 -1223 0
-1224 -544 0
-545 -689 0
-690 -546 0
-547 -691 0
-548 -692 0
-545 -705 0
-706 -546 0
-707 -547 0
-548 -708 0
-545 -929 0
-930 -546 0
-931 -547 0
-548 -932 0
-545 -997 0
-998 -546 0
-999 -547 0
-548 -1000 0
-545 -1217 0
-1218 -546 0
-1219 -547 0
-1220 -548 0
-549 -693 0
-694 -550 0
-551 -695 0
-696 -552 0
-549 -709 0
-550 -710 0
-551 -711 0
-712 -552 0
-909 -549 0
-550 -910 0
-551 -911 0
-552 -912 0
-549 -1001 0
-1002 -550 0
-1003 -551 0
-1004 -552 0
-549 -1341 0
-1342 -550 0
-551 -1343 0
-1344 -552 0
-549 -1365 0
-1366 -550 0
-1367 -551 0
-1368 -552 0
-553 -697 0
-554 -698 0
-699 -555 0
-556 -700 0
-553 -713 0
-714 -554 0
-715 -555 0
-716 -556 0
-553 -937 0
-554 -938 0
-939 -555 0
-556 -940 0
-553 -989 0
-554 -990 0
-991 -555 0
-992 -556 0
-553 -1345 0
-1346 -554 0
-1347 -555 0
-1348 -556 0
-557 -701 0
-702 -558 0
-559 -703 0
-560 -704 0
-557 -717 0
-718 -558 0
-559 -719 0
-720 -560 0
-557 -917 0
-918 -558 0
-559 -919 0
-560 -920 0
-557 -993 0
-994 -558 0
-995 -559 0
-996 -560 0
-557 -1229 0
-1230 -558 0
-559 -1231 0
-1232 -560 0
-561 -705 0
-706 -562 0
-707 -563 0
-708 -564 0
-561 -721 0
-562 -722 0
-723 -563 0
-724 -564 0
-561 -953 0
-954 -562 0
-563 -955 0
-564 -956 0
-561 -1013 0
-1014 -562 0
-1015 -563 0
-564 -1016 0
-561 -1225 0
-1226 -562 0
-1227 -563 0
-1228 -564 0
-709 -565 0
-566 -710 0
-711 -567 0
-712 -568 0
-725 -565 0
-566 -726 0
-727 -567 0
-728 -568 0
-565 -933 0
-566 -934 0
-567 -935 0
-936 -568 0
-1017 -565 0
-566 -1018 0
-1019 -567 0
-1020 -568 0
-1349 -565 0
-1350 -566 0
-1351 -567 0
-1352 -568 0
-569 -713 0
-714 -570 0
-715 -571 0
-716 -572 0
-569 -729 0
-570 -730 0
-731 -571 0
-732 -572 0
-569 -961 0
-570 -962 0
-963 -571 0
-572 -964 0
-569 -1005 0
-1006 -570 0
-1007 -571 0
-1008 -572 0
-569 -1353 0
-1354 -570 0
-1355 -571 0
-1356 -572 0
-569 -1369 0
-570 -1370 0
-1371 -571 0
-1372 -572 0
-717 -573 0
-574 -718 0
-575 -719 0
-720 -576 0
-733 -573 0
-574 -734 0
-575 -735 0
-736 -576 0
-573 -941 0
-942 -574 0
-943 -575 0
-576 -944 0
-1009 -573 0
-1010 -574 0
-1011 -575 0
-1012 -576 0
-1237 -573 0
-1238 -574 0
-575 -1239 0
-1240 -576 0
-577 -689 0
-690 -578 0
-579 -691 0
-692 -580 0
-577 -721 0
-578 -722 0
-579 -723 0
-724 -580 0
-577 -905 0
-578 -906 0
-579 -907 0
-580 -908 0
-577 -1233 0
-578 -1234 0
-579 -1235 0
-1236 -580 0
-581 -693 0
-694 -582 0
-695 -583 0
-696 -584 0
-581 -725 0
-726 -582 0
-727 -583 0
-584 -728 0
-581 -957 0
-582 -958 0
-583 -959 0
-584 -960 0
-581 -985 0
-986 -582 0
-583 -987 0
-988 -584 0
-1357 -581 0
-1358 -582 0
-1359 -583 0
-1360 -584 0
-1373 -581 0
-1375 -583 0
-1376 -584 0
-586 -1030 0
-1031 -587 0
-585 -1141 0
-586 -1142 0
-1143 -587 0
-588 -1144 0
-589 -1041 0
-590 -1042 0
-1043 -591 0
-592 -1044 0
-589 -1097 0
-590 -1098 0
-1099 -591 0
-592 -1100 0
-594 -738 0
-595 -739 0
-740 -596 0
-594 -790 0
-595 -791 0
-596 -792 0
-594 -1054 0
-595 -1055 0
-596 -1056 0
-594 -1186 0
-595 -1187 0
-1188 -596 0
-594 -1334 0
-595 -1335 0
-594 -1426 0
-595 -1427 0
-1428 -596 0
-674 -598 0
-758 -598 0
-974 -598 0
-1094 -598 0
-1250 -598 0
-1310 -598 0
-1374 -598 0
-1390 -598 0
-1394 -598 0
-1430 -598 0
-602 -614 0
-615 -603 0
-616 -604 0
-602 -678 0
-679 -603 0
-604 -680 0
-1058 -602 0
-1059 -603 0
-1060 -604 0
-602 -1190 0
-1191 -603 0
-1192 -604 0
-1242 -602 0
-1243 -603 0
-1244 -604 0
-1254 -602 0
-1362 -602 0
-1363 -603 0
-1364 -604 0
-1395 -603 0
-1396 -604 0
-606 -618 0
-607 -619 0
-608 -620 0
-606 -682 0
-607 -683 0
-608 -684 0
-794 -606 0
-607 -795 0
-796 -608 0
-886 -606 0
-607 -887 0
-888 -608 0
-1062 -606 0
-607 -1063 0
-1064 -608 0
-1146 -606 0
-607 -1147 0
-608 -1148 0
-1154 -606 0
-607 -1155 0
-1156 -608 0
-1246 -606 0
-607 -1247 0
-1248 -608 0
-1258 -606 0
-607 -1259 0
-608 -1260 0
-1314 -606 0
-607 -1315 0
-1316 -608 0
-1378 -606 0
-1380 -608 0
-1434 -606 0
-607 -1435 0
-1436 -608 0
-631 -611 0
-767 -611 0
-1051 -611 0
-1151 -611 0
-1159 -611 0
-1251 -611 0
-1263 -611 0
-1319 -611 0
-1379 -611 0
-1439 -611 0
-634 -614 0
-635 -615 0
-616 -636 0
-890 -614 0
-891 -615 0
-892 -616 0
-1054 -614 0
-615 -1055 0
-1056 -616 0
-614 -1162 0
-615 -1163 0
-616 -1164 0
-1255 -615 0
-1256 -616 0
-1266 -614 0
-1267 -615 0
-1268 -616 0
-1366 -614 0
-1367 -615 0
-1368 -616 0
-1398 -614 0
-615 -1399 0
-1400 -616 0
-638 -618 0
-619 -639 0
-640 -620 0
-754 -618 0
-619 -755 0
-756 -620 0
-975 -619 0
-976 -620 0
-1066 -618 0
-619 -1067 0
-1068 -620 0
-1258 -618 0
-1259 -619 0
-620 -1260 0
-1270 -618 0
-619 -1271 0
-1272 -620 0
-1398 -618 0
-619 -1399 0
-1400 -620 0
-1442 -618 0
-1443 -619 0
-1444 -620 0
-622 -738 0
-623 -739 0
-740 -624 0
-622 -770 0
-623 -771 0
-624 -772 0
-622 -1058 0
-623 -1059 0
-624 -1060 0
-622 -1166 0
-623 -1167 0
-1168 -624 0
-622 -1322 0
-1323 -623 0
-1324 -624 0
-1403 -623 0
-1404 -624 0
-626 -742 0
-744 -628 0
-627 -759 0
-628 -760 0
-626 -1070 0
-627 -1071 0
-628 -1072 0
-626 -1154 0
-627 -1155 0
-1156 -628 0
-626 -1318 0
-628 -1320 0
-630 -642 0
-644 -632 0
-630 -774 0
-776 -632 0
-630 -978 0
-980 -632 0
-630 -1062 0
-1064 -632 0
-630 -1262 0
-1264 -632 0
-630 -1274 0
-1276 -632 0
-630 -1366 0
-1368 -632 0
-630 -1402 0
-1404 -632 0
-630 -1406 0
-1408 -632 0
-630 -1446 0
-1448 -632 0
-634 -646 0
-635 -647 0
-648 -636 0
-886 -634 0
-635 -887 0
-888 -636 0
-1074 -634 0
-635 -1075 0
-1076 -636 0
-1158 -634 0
-1160 -636 0
-635 -1267 0
-1268 -636 0
-1278 -634 0
-635 -1279 0
-1280 -636 0
-1406 -634 0
-635 -1407 0
-1408 -636 0
-650 -638 0
-651 -639 0
-640 -652 0
-762 -638 0
-763 -639 0
-764 -640 0
-894 -638 0
-895 -639 0
-896 -640 0
-1078 -638 0
-1079 -639 0
-640 -1080 0
-1162 -638 0
-1163 -639 0
-640 -1164 0
-1170 -638 0
-1171 -639 0
-1172 -640 0
-1270 -638 0
-1271 -639 0
-1272 -640 0
-1282 -638 0
-1283 -639 0
-640 -1284 0
-1322 -638 0
-1323 -639 0
-1324 -640 0
-1382 -638 0
-1383 -639 0
-1384 -640 0
-1450 -638 0
-1451 -639 0
-1452 -640 0
-662 -642 0
-663 -643 0
-664 -644 0
-782 -642 0
-783 -643 0
-784 -644 0
-890 -642 0
-891 -643 0
-892 -644 0
-1066 -642 0
-1067 -643 0
-1068 -644 0
-1166 -642 0
-1167 -643 0
-1168 -644 0
-1174 -642 0
-643 -1175 0
-644 -1176 0
-642 -1274 0
-1275 -643 0
-1276 -644 0
-1286 -642 0
-1287 -643 0
-1288 -644 0
-1326 -642 0
-1327 -643 0
-1328 -644 0
-1382 -642 0
-1383 -643 0
-1384 -644 0
-1454 -642 0
-1455 -643 0
-1456 -644 0
-666 -646 0
-667 -647 0
-668 -648 0
-898 -646 0
-899 -647 0
-900 -648 0
-1070 -646 0
-1071 -647 0
-1072 -648 0
-1178 -646 0
-1179 -647 0
-1180 -648 0
-1278 -646 0
-1279 -647 0
-1280 -648 0
-1290 -646 0
-1291 -647 0
-1292 -648 0
-1410 -646 0
-647 -1411 0
-1412 -648 0
-670 -650 0
-651 -671 0
-672 -652 0
-770 -650 0
-771 -651 0
-772 -652 0
-978 -650 0
-979 -651 0
-980 -652 0
-1082 -650 0
-1083 -651 0
-1084 -652 0
-1282 -650 0
-1283 -651 0
-1284 -652 0
-1294 -650 0
-1295 -651 0
-1296 -652 0
-1370 -650 0
-1371 -651 0
-1372 -652 0
-1410 -650 0
-651 -1411 0
-1412 -652 0
-1414 -650 0
-1415 -651 0
-1416 -652 0
-1458 -650 0
-1459 -651 0
-1460 -652 0
-654 -742 0
-743 -655 0
-654 -786 0
-787 -655 0
-656 -788 0
-654 -1074 0
-1075 -655 0
-656 -1076 0
-654 -1182 0
-1183 -655 0
-1184 -656 0
-654 -1330 0
-1331 -655 0
-656 -1332 0
-658 -746 0
-659 -747 0
-748 -660 0
-658 -774 0
-659 -775 0
-776 -660 0
-658 -1086 0
-659 -1087 0
-1088 -660 0
-658 -1170 0
-659 -1171 0
-1172 -660 0
-658 -1326 0
-659 -1327 0
-1328 -660 0
-658 -1414 0
-1416 -660 0
-675 -663 0
-664 -676 0
-662 -790 0
-791 -663 0
-792 -664 0
-662 -982 0
-983 -663 0
-984 -664 0
-662 -1078 0
-1079 -663 0
-664 -1080 0
-662 -1286 0
-1287 -663 0
-1288 -664 0
-662 -1298 0
-1299 -663 0
-1300 -664 0
-662 -1418 0
-1419 -663 0
-1420 -664 0
-662 -1462 0
-1463 -663 0
-1464 -664 0
-678 -666 0
-667 -679 0
-680 -668 0
-894 -666 0
-667 -895 0
-896 -668 0
-1090 -666 0
-667 -1091 0
-1092 -668 0
-1174 -666 0
-667 -1175 0
-668 -1176 0
-1290 -666 0
-1291 -667 0
-1302 -666 0
-667 -1303 0
-1304 -668 0
-1370 -666 0
-1371 -667 0
-1372 -668 0
-666 -1418 0
-1419 -667 0
-1420 -668 0
-670 -682 0
-683 -671 0
-672 -684 0
-670 -778 0
-779 -671 0
-780 -672 0
-1095 -671 0
-672 -1096 0
-670 -1178 0
-1179 -671 0
-672 -1180 0
-670 -1186 0
-1187 -671 0
-1188 -672 0
-670 -1294 0
-1295 -671 0
-1296 -672 0
-670 -1306 0
-1307 -671 0
-1308 -672 0
-670 -1330 0
-1331 -671 0
-1332 -672 0
-670 -1386 0
-1387 -671 0
-1388 -672 0
-670 -1466 0
-1467 -671 0
-1468 -672 0
-675 -751 0
-752 -676 0
-675 -899 0
-900 -676 0
-675 -1083 0
-1084 -676 0
-675 -1183 0
-1184 -676 0
-675 -1191 0
-1192 -676 0
-675 -1299 0
-1300 -676 0
-675 -1311 0
-1312 -676 0
-675 -1335 0
-1336 -676 0
-675 -1387 0
-1388 -676 0
-675 -1471 0
-1472 -676 0
-1086 -678 0
-679 -1087 0
-1088 -680 0
-1146 -678 0
-679 -1147 0
-680 -1148 0
-1242 -678 0
-1243 -679 0
-1244 -680 0
-1302 -678 0
-1303 -679 0
-1304 -680 0
-1375 -679 0
-1376 -680 0
-1422 -678 0
-1423 -679 0
-1424 -680 0
-786 -682 0
-787 -683 0
-788 -684 0
-982 -682 0
-983 -683 0
-984 -684 0
-1050 -682 0
-1052 -684 0
-1246 -682 0
-1247 -683 0
-1248 -684 0
-1306 -682 0
-1307 -683 0
-1308 -684 0
-1362 -682 0
-1363 -683 0
-1364 -684 0
-1422 -682 0
-1423 -683 0
-1424 -684 0
-1426 -682 0
-1427 -683 0
-1428 -684 0
-1474 -682 0
-1475 -683 0
-1476 -684 0
-686 -746 0
-687 -747 0
-748 -688 0
-686 -754 0
-687 -755 0
-756 -688 0
-686 -1090 0
-687 -1091 0
-688 -1092 0
-686 -1150 0
-1152 -688 0
-686 -1314 0
-687 -1315 0
-1316 -688 0
-687 -1391 0
-1392 -688 0
-1021 -689 0
-1022 -690 0
-1023 -691 0
-692 -1024 0
-1141 -689 0
-1142 -690 0
-691 -1143 0
-1144 -692 0
-1217 -689 0
-1218 -690 0
-691 -1219 0
-1220 -692 0
-1389 -689 0
-1391 -691 0
-1392 -692 0
-1105 -693 0
-694 -1106 0
-1107 -695 0
-1108 -696 0
-693 -1393 0
-1395 -695 0
-696 -1396 0
-997 -697 0
-698 -998 0
-999 -699 0
-1000 -700 0
-697 -1101 0
-698 -1102 0
-699 -1103 0
-1104 -700 0
-1397 -697 0
-698 -1398 0
-699 -1399 0
-1400 -700 0
-869 -701 0
-871 -703 0
-872 -704 0
-1001 -701 0
-702 -1002 0
-1003 -703 0
-704 -1004 0
-1113 -701 0
-1114 -702 0
-1115 -703 0
-1116 -704 0
-1221 -701 0
-702 -1222 0
-703 -1223 0
-1224 -704 0
-878 -706 0
-879 -707 0
-880 -708 0
-989 -705 0
-706 -990 0
-991 -707 0
-708 -992 0
-1109 -705 0
-1110 -706 0
-707 -1111 0
-708 -1112 0
-1225 -705 0
-1226 -706 0
-1227 -707 0
-1228 -708 0
-1401 -705 0
-706 -1402 0
-1403 -707 0
-1404 -708 0
-993 -709 0
-994 -710 0
-995 -711 0
-712 -996 0
-1121 -709 0
-1122 -710 0
-1123 -711 0
-1124 -712 0
-709 -1405 0
-1406 -710 0
-711 -1407 0
-712 -1408 0
-1478 -710 0
-1479 -711 0
-1480 -712 0
-1013 -713 0
-714 -1014 0
-1015 -715 0
-716 -1016 0
-714 -1118 0
-1119 -715 0
-1120 -716 0
-1409 -713 0
-714 -1410 0
-715 -1411 0
-716 -1412 0
-1481 -713 0
-1483 -715 0
-1484 -716 0
-873 -717 0
-718 -874 0
-875 -719 0
-876 -720 0
-1017 -717 0
-718 -1018 0
-1019 -719 0
-720 -1020 0
-1129 -717 0
-1130 -718 0
-1131 -719 0
-720 -1132 0
-1229 -717 0
-1230 -718 0
-1231 -719 0
-1232 -720 0
-1413 -717 0
-1414 -718 0
-1415 -719 0
-1416 -720 0
-882 -722 0
-883 -723 0
-884 -724 0
-721 -1005 0
-1006 -722 0
-723 -1007 0
-724 -1008 0
-721 -1125 0
-1126 -722 0
-723 -1127 0
-724 -1128 0
-721 -1233 0
-722 -1234 0
-723 -1235 0
-1236 -724 0
-1009 -725 0
-1010 -726 0
-727 -1011 0
-1012 -728 0
-1137 -725 0
-1138 -726 0
-727 -1139 0
-1140 -728 0
-725 -1417 0
-726 -1418 0
-727 -1419 0
-728 -1420 0
-1133 -729 0
-730 -1134 0
-731 -1135 0
-1136 -732 0
-729 -1421 0
-730 -1422 0
-731 -1423 0
-732 -1424 0
-986 -734 0
-735 -987 0
-736 -988 0
-1097 -733 0
-1098 -734 0
-1099 -735 0
-736 -1100 0
-1237 -733 0
-1238 -734 0
-1239 -735 0
-1240 -736 0
-1425 -733 0
-1426 -734 0
-1427 -735 0
-1428 -736 0
-809 -749 0
-750 -810 0
-751 -811 0
-752 -812 0
-861 -749 0
-862 -750 0
-863 -751 0
-752 -864 0
-1333 -749 0
-750 -1334 0
-1335 -751 0
-1336 -752 0
-797 -753 0
-754 -798 0
-755 -799 0
-756 -800 0
-817 -753 0
-818 -754 0
-819 -755 0
-820 -756 0
-753 -989 0
-990 -754 0
-991 -755 0
-992 -756 0
-1197 -753 0
-1198 -754 0
-755 -1199 0
-1200 -756 0
-1313 -753 0
-1314 -754 0
-1315 -755 0
-756 -1316 0
-757 -801 0
-803 -759 0
-804 -760 0
-821 -757 0
-823 -759 0
-760 -824 0
-757 -985 0
-987 -759 0
-988 -760 0
-757 -993 0
-995 -759 0
-996 -760 0
-1193 -757 0
-1195 -759 0
-1196 -760 0
-1317 -757 0
-760 -1320 0
-809 -761 0
-762 -810 0
-763 -811 0
-764 -812 0
-829 -761 0
-830 -762 0
-831 -763 0
-764 -832 0
-1321 -761 0
-762 -1322 0
-1324 -764 0
-765 -813 0
-766 -814 0
-816 -768 0
-833 -765 0
-834 -766 0
-768 -836 0
-1317 -765 0
-1318 -766 0
-768 -1320 0
-821 -769 0
-822 -770 0
-771 -823 0
-772 -824 0
-841 -769 0
-842 -770 0
-843 -771 0
-844 -772 0
-769 -997 0
-998 -770 0
-999 -771 0
-1000 -772 0
-769 -1005 0
-1006 -770 0
-1007 -771 0
-1008 -772 0
-1205 -769 0
-1206 -770 0
-1207 -771 0
-1208 -772 0
-1321 -769 0
-1322 -770 0
-1323 -771 0
-1324 -772 0
-1482 -770 0
-1483 -771 0
-1484 -772 0
-825 -773 0
-826 -774 0
-827 -775 0
-776 -828 0
-773 -845 0
-774 -846 0
-775 -847 0
-776 -848 0
-773 -1001 0
-1002 -774 0
-1003 -775 0
-1004 -776 0
-773 -1009 0
-1010 -774 0
-1011 -775 0
-1012 -776 0
-1201 -773 0
-774 -1202 0
-1203 -775 0
-1204 -776 0
-1325 -773 0
-1326 -774 0
-1327 -775 0
-1477 -773 0
-1479 -775 0
-1480 -776 0
-833 -777 0
-778 -834 0
-835 -779 0
-780 -836 0
-777 -853 0
-854 -778 0
-855 -779 0
-780 -856 0
-1329 -777 0
-778 -1330 0
-779 -1331 0
-780 -1332 0
-781 -837 0
-838 -782 0
-839 -783 0
-784 -840 0
-781 -857 0
-782 -858 0
-783 -859 0
-784 -860 0
-1325 -781 0
-782 -1326 0
-1327 -783 0
-1328 -784 0
-785 -845 0
-846 -786 0
-787 -847 0
-788 -848 0
-785 -865 0
-866 -786 0
-867 -787 0
-868 -788 0
-785 -1013 0
-1014 -786 0
-1015 -787 0
-1016 -788 0
-785 -1021 0
-1022 -786 0
-787 -1023 0
-1024 -788 0
-1213 -785 0
-1214 -786 0
-787 -1215 0
-1216 -788 0
-1329 -785 0
-1330 -786 0
-787 -1331 0
-1332 -788 0
-797 -789 0
-790 -798 0
-791 -799 0
-792 -800 0
-789 -849 0
-851 -791 0
-852 -792 0
-789 -1017 0
-790 -1018 0
-791 -1019 0
-792 -1020 0
-1209 -789 0
-1210 -790 0
-1212 -792 0
-1333 -789 0
-1334 -790 0
-805 -793 0
-794 -806 0
-807 -795 0
-808 -796 0
-793 -857 0
-858 -794 0
-795 -859 0
-860 -796 0
-1313 -793 0
-1314 -794 0
-1315 -795 0
-1316 -796 0
-909 -797 0
-798 -910 0
-799 -911 0
-912 -800 0
-797 -961 0
-798 -962 0
-963 -799 0
-964 -800 0
-797 -1101 0
-1102 -798 0
-799 -1103 0
-1104 -800 0
-797 -1137 0
-1138 -798 0
-1139 -799 0
-1140 -800 0
-797 -1393 0
-1395 -799 0
-1396 -800 0
-797 -1421 0
-798 -1422 0
-1423 -799 0
-1424 -800 0
-1309 -801 0
-803 -1311 0
-804 -1312 0
-1425 -801 0
-969 -805 0
-970 -806 0
-807 -971 0
-972 -808 0
-805 -1257 0
-1258 -806 0
-807 -1259 0
-808 -1260 0
-805 -1393 0
-1395 -807 0
-808 -1396 0
-809 -905 0
-906 -810 0
-907 -811 0
-812 -908 0
-917 -809 0
-918 -810 0
-811 -919 0
-920 -812 0
-809 -1097 0
-1098 -810 0
-1099 -811 0
-1100 -812 0
-809 -1109 0
-1110 -810 0
-1111 -811 0
-1112 -812 0
-925 -813 0
-926 -814 0
-927 -815 0
-928 -816 0
-1249 -813 0
-816 -1252 0
-1397 -813 0
-1398 -814 0
-815 -1399 0
-816 -1400 0
-817 -1269 0
-818 -1270 0
-819 -1271 0
-820 -1272 0
-1401 -817 0
-818 -1402 0
-1403 -819 0
-1404 -820 0
-821 -913 0
-822 -914 0
-915 -823 0
-916 -824 0
-821 -933 0
-822 -934 0
-823 -935 0
-824 -936 0
-821 -1105 0
-822 -1106 0
-1107 -823 0
-1108 -824 0
-1117 -821 0
-822 -1118 0
-1119 -823 0
-1120 -824 0
-1397 -821 0
-822 -1398 0
-823 -1399 0
-1400 -824 0
-821 -1405 0
-822 -1406 0
-1407 -823 0
-1408 -824 0
-1261 -825 0
-826 -1262 0
-828 -1264 0
-921 -829 0
-922 -830 0
-923 -831 0
-924 -832 0
-829 -1281 0
-830 -1282 0
-831 -1283 0
-832 -1284 0
-829 -1405 0
-830 -1406 0
-831 -1407 0
-832 -1408 0
-833 -929 0
-930 -834 0
-835 -931 0
-932 -836 0
-833 -941 0
-942 -834 0
-835 -943 0
-836 -944 0
-833 -1113 0
-1114 -834 0
-835 -1115 0
-1116 -836 0
-833 -1125 0
-1126 -834 0
-835 -1127 0
-1128 -836 0
-949 -837 0
-838 -950 0
-951 -839 0
-952 -840 0
-837 -1273 0
-838 -1274 0
-839 -1275 0
-840 -1276 0
-1409 -837 0
-838 -1410 0
-839 -1411 0
-840 -1412 0
-841 -1293 0
-842 -1294 0
-843 -1295 0
-844 -1296 0
-845 -937 0
-846 -938 0
-939 -847 0
-848 -940 0
-845 -957 0
-846 -958 0
-847 -959 0
-960 -848 0
-1121 -845 0
-1122 -846 0
-1123 -847 0
-1124 -848 0
-1133 -845 0
-846 -1134 0
-1135 -847 0
-1136 -848 0
-1409 -845 0
-1410 -846 0
-847 -1411 0
-1412 -848 0
-1417 -845 0
-846 -1418 0
-1419 -847 0
-1420 -848 0
-1285 -849 0
-850 -1286 0
-851 -1287 0
-852 -1288 0
-1413 -849 0
-851 -1415 0
-945 -853 0
-946 -854 0
-947 -855 0
-948 -856 0
-853 -1305 0
-854 -1306 0
-855 -1307 0
-856 -1308 0
-853 -1417 0
-854 -1418 0
-855 -1419 0
-856 -1420 0
-953 -857 0
-954 -858 0
-859 -955 0
-956 -860 0
-965 -857 0
-966 -858 0
-859 -967 0
-860 -968 0
-1129 -857 0
-1130 -858 0
-1131 -859 0
-1132 -860 0
-1141 -857 0
-1142 -858 0
-859 -1143 0
-1144 -860 0
-901 -861 0
-902 -862 0
-863 -903 0
-904 -864 0
-861 -1297 0
-862 -1298 0
-863 -1299 0
-864 -1300 0
-861 -1421 0
-862 -1422 0
-863 -1423 0
-864 -1424 0
-1245 -865 0
-866 -1246 0
-867 -1247 0
-868 -1248 0
-1389 -865 0
-867 -1391 0
-1392 -868 0
-869 -1153 0
-870 -1154 0
-1155 -871 0
-872 -1156 0
-873 -1169 0
-1170 -874 0
-875 -1171 0
-876 -1172 0
-877 -1165 0
-878 -1166 0
-879 -1167 0
-880 -1168 0
-881 -1181 0
-882 -1182 0
-883 -1183 0
-1184 -884 0
-885 -1025 0
-886 -1026 0
-1027 -887 0
-1028 -888 0
-885 -1113 0
-1114 -886 0
-887 -1115 0
-1116 -888 0
-889 -1037 0
-1038 -890 0
-1039 -891 0
-892 -1040 0
-889 -1109 0
-1110 -890 0
-891 -1111 0
-1112 -892 0
-889 -1365 0
-890 -1366 0
-1367 -891 0
-892 -1368 0
-893 -1033 0
-894 -1034 0
-1035 -895 0
-1036 -896 0
-893 -1129 0
-894 -1130 0
-1131 -895 0
-896 -1132 0
-1369 -893 0
-894 -1370 0
-1371 -895 0
-896 -1372 0
-897 -1045 0
-898 -1046 0
-1047 -899 0
-1048 -900 0
-897 -1125 0
-898 -1126 0
-899 -1127 0
-900 -1128 0
-1053 -901 0
-902 -1054 0
-903 -1055 0
-904 -1056 0
-901 -1185 0
-902 -1186 0
-903 -1187 0
-904 -1188 0
-901 -1421 0
-902 -1422 0
-903 -1423 0
-904 -1424 0
-1026 -906 0
-1027 -907 0
-1028 -908 0
-905 -1093 0
-1095 -907 0
-908 -1096 0
-1473 -905 0
-1474 -906 0
-1475 -907 0
-1476 -908 0
-909 -1061 0
-1062 -910 0
-1063 -911 0
-912 -1064 0
-909 -1145 0
-1146 -910 0
-1147 -911 0
-912 -1148 0
-1342 -910 0
-1343 -911 0
-1344 -912 0
-909 -1393 0
-1395 -911 0
-912 -1396 0
-909 -1437 0
-1438 -910 0
-1440 -912 0
-1049 -913 0
-914 -1050 0
-916 -1052 0
-1157 -913 0
-1158 -914 0
-1160 -916 0
-1337 -913 0
-1338 -914 0
-1339 -915 0
-1340 -916 0
-1397 -913 0
-914 -1398 0
-915 -1399 0
-1400 -916 0
-1433 -913 0
-1434 -914 0
-1435 -915 0
-1436 -916 0
-917 -1029 0
-918 -1030 0
-1031 -919 0
-1032 -920 0
-917 -1065 0
-918 -1066 0
-919 -1067 0
-920 -1068 0
-917 -1445 0
-918 -1446 0
-1447 -919 0
-1448 -920 0
-921 -1057 0
-922 -1058 0
-923 -1059 0
-924 -1060 0
-921 -1165 0
-922 -1166 0
-923 -1167 0
-924 -1168 0
-921 -1405 0
-922 -1406 0
-923 -1407 0
-924 -1408 0
-925 -1069 0
-1070 -926 0
-927 -1071 0
-928 -1072 0
-925 -1153 0
-1154 -926 0
-927 -1155 0
-1156 -928 0
-1397 -925 0
-926 -1398 0
-927 -1399 0
-928 -1400 0
-1033 -929 0
-930 -1034 0
-1035 -931 0
-1036 -932 0
-1061 -929 0
-930 -1062 0
-931 -1063 0
-932 -1064 0
-1441 -929 0
-930 -1442 0
-1443 -931 0
-1444 -932 0
-933 -1077 0
-1078 -934 0
-935 -1079 0
-936 -1080 0
-933 -1161 0
-934 -1162 0
-1163 -935 0
-1164 -936 0
-1349 -933 0
-1350 -934 0
-1351 -935 0
-1352 -936 0
-1405 -933 0
-1406 -934 0
-1407 -935 0
-1408 -936 0
-1453 -933 0
-1454 -934 0
-1455 -935 0
-1456 -936 0
-937 -1065 0
-1066 -938 0
-939 -1067 0
-1068 -940 0
-1173 -937 0
-1174 -938 0
-939 -1175 0
-940 -1176 0
-1345 -937 0
-1346 -938 0
-939 -1347 0
-1348 -940 0
-1409 -937 0
-1410 -938 0
-939 -1411 0
-940 -1412 0
-1449 -937 0
-1450 -938 0
-939 -1451 0
-1452 -940 0
-1037 -941 0
-1038 -942 0
-1039 -943 0
-1040 -944 0
-1081 -941 0
-942 -1082 0
-943 -1083 0
-944 -1084 0
-1461 -941 0
-942 -1462 0
-1463 -943 0
-1464 -944 0
-1073 -945 0
-946 -1074 0
-947 -1075 0
-948 -1076 0
-945 -1181 0
-946 -1182 0
-947 -1183 0
-945 -1417 0
-946 -1418 0
-947 -1419 0
-948 -1420 0
-1085 -949 0
-950 -1086 0
-951 -1087 0
-952 -1088 0
-949 -1169 0
-950 -1170 0
-951 -1171 0
-1172 -952 0
-949 -1409 0
-950 -1410 0
-951 -1411 0
-952 -1412 0
-1041 -953 0
-954 -1042 0
-1043 -955 0
-1044 -956 0
-953 -1077 0
-954 -1078 0
-1079 -955 0
-956 -1080 0
-1457 -953 0
-954 -1458 0
-1459 -955 0
-1460 -956 0
-957 -1093 0
-1095 -959 0
-960 -1096 0
-1177 -957 0
-958 -1178 0
-1179 -959 0
-960 -1180 0
-1357 -957 0
-1358 -958 0
-1359 -959 0
-1360 -960 0
-1417 -957 0
-1418 -958 0
-1419 -959 0
-960 -1420 0
-1469 -957 0
-1470 -958 0
-1471 -959 0
-1472 -960 0
-961 -1081 0
-962 -1082 0
-963 -1083 0
-964 -1084 0
-1189 -961 0
-962 -1190 0
-963 -1191 0
-964 -1192 0
-1353 -961 0
-1354 -962 0
-963 -1355 0
-1356 -964 0
-1421 -961 0
-1422 -962 0
-963 -1423 0
-964 -1424 0
-1465 -961 0
-963 -1467 0
-1468 -964 0
-965 -1045 0
-966 -1046 0
-1047 -967 0
-1048 -968 0
-965 -1049 0
-966 -1050 0
-968 -1052 0
-1429 -965 0
-1431 -967 0
-1432 -968 0
-1089 -969 0
-970 -1090 0
-1091 -971 0
-972 -1092 0
-969 -1149 0
-970 -1150 0
-1152 -972 0
-969 -1393 0
-1395 -971 0
-972 -1396 0
-1905 -973 0
-1907 -975 0
-1908 -976 0
-977 -1913 0
-978 -1914 0
-1915 -979 0
-1916 -980 0
-981 -1921 0
-982 -1922 0
-1923 -983 0
-1924 -984 0
-1029 -985 0
-986 -1030 0
-1031 -987 0
-1032 -988 0
-1373 -985 0
-1375 -987 0
-1376 -988 0
-1425 -985 0
-986 -1426 0
-1428 -988 0
-1025 -989 0
-990 -1026 0
-1027 -991 0
-1028 -992 0
-1401 -989 0
-1403 -991 0
-1404 -992 0
-994 -1202 0
-1203 -995 0
-1204 -996 0
-1341 -993 0
-994 -1342 0
-995 -1343 0
-1344 -996 0
-993 -1405 0
-994 -1406 0
-995 -1407 0
-996 -1408 0
-1198 -998 0
-999 -1199 0
-1200 -1000 0
-997 -1345 0
-1346 -998 0
-999 -1347 0
-1348 -1000 0
-1397 -997 0
-998 -1398 0
-999 -1399 0
-1400 -1000 0
-1037 -1001 0
-1038 -1002 0
-1003 -1039 0
-1040 -1004 0
-1365 -1001 0
-1366 -1002 0
-1367 -1003 0
-1002 -1478 0
-1479 -1003 0
-1480 -1004 0
-1033 -1005 0
-1006 -1034 0
-1007 -1035 0
-1008 -1036 0
-1369 -1005 0
-1006 -1370 0
-1007 -1371 0
-1372 -1008 0
-1482 -1006 0
-1483 -1007 0
-1484 -1008 0
-1210 -1010 0
-1211 -1011 0
-1212 -1012 0
-1349 -1009 0
-1010 -1350 0
-1352 -1012 0
-1009 -1417 0
-1010 -1418 0
-1419 -1011 0
-1012 -1420 0
-1205 -1013 0
-1206 -1014 0
-1207 -1015 0
-1208 -1016 0
-1013 -1353 0
-1014 -1354 0
-1015 -1355 0
-1016 -1356 0
-1013 -1409 0
-1014 -1410 0
-1015 -1411 0
-1016 -1412 0
-1045 -1017 0
-1046 -1018 0
-1047 -1019 0
-1048 -1020 0
-1413 -1017 0
-1414 -1018 0
-1415 -1019 0
-1041 -1021 0
-1022 -1042 0
-1043 -1023 0
-1044 -1024 0
-1361 -1021 0
-1022 -1362 0
-1363 -1023 0
-1364 -1024 0
-1389 -1021 0
-1391 -1023 0
-1392 -1024 0
-1313 -1025 0
-1027 -1315 0
-1028 -1316 0
-1317 -1029 0
-1030 -1318 0
-1032 -1320 0
-1321 -1033 0
-1322 -1034 0
-1323 -1035 0
-1324 -1036 0
-1038 -1326 0
-1327 -1039 0
-1040 -1328 0
-1329 -1041 0
-1042 -1330 0
-1043 -1331 0
-1044 -1332 0
-1333 -1045 0
-1047 -1335 0
-1336 -1048 0
-1189 -1049 0
-1190 -1050 0
-1052 -1192 0
-1221 -1049 0
-1222 -1050 0
-1224 -1052 0
-1377 -1049 0
-1378 -1050 0
-1380 -1052 0
-1053 -1145 0
-1054 -1146 0
-1055 -1147 0
-1056 -1148 0
-1053 -1153 0
-1054 -1154 0
-1155 -1055 0
-1156 -1056 0
-1053 -1341 0
-1054 -1342 0
-1343 -1055 0
-1344 -1056 0
-1057 -1149 0
-1058 -1150 0
-1152 -1060 0
-1057 -1157 0
-1158 -1058 0
-1060 -1160 0
-1057 -1337 0
-1058 -1338 0
-1059 -1339 0
-1340 -1060 0
-1061 -1161 0
-1062 -1162 0
-1163 -1063 0
-1164 -1064 0
-1217 -1061 0
-1218 -1062 0
-1219 -1063 0
-1220 -1064 0
-1061 -1377 0
-1378 -1062 0
-1380 -1064 0
-1157 -1065 0
-1158 -1066 0
-1160 -1068 0
-1229 -1065 0
-1230 -1066 0
-1231 -1067 0
-1232 -1068 0
-1381 -1065 0
-1382 -1066 0
-1383 -1067 0
-1384 -1068 0
-1069 -1161 0
-1070 -1162 0
-1163 -1071 0
-1072 -1164 0
-1069 -1169 0
-1070 -1170 0
-1171 -1071 0
-1172 -1072 0
-1069 -1349 0
-1070 -1350 0
-1351 -1071 0
-1352 -1072 0
-1073 -1165 0
-1166 -1074 0
-1167 -1075 0
-1168 -1076 0
-1073 -1173 0
-1174 -1074 0
-1075 -1175 0
-1076 -1176 0
-1073 -1345 0
-1346 -1074 0
-1075 -1347 0
-1348 -1076 0
-1077 -1177 0
-1178 -1078 0
-1079 -1179 0
-1080 -1180 0
-1225 -1077 0
-1226 -1078 0
-1227 -1079 0
-1228 -1080 0
-1381 -1077 0
-1382 -1078 0
-1079 -1383 0
-1384 -1080 0
-1173 -1081 0
-1174 -1082 0
-1083 -1175 0
-1084 -1176 0
-1237 -1081 0
-1238 -1082 0
-1239 -1083 0
-1240 -1084 0
-1385 -1081 0
-1386 -1082 0
-1387 -1083 0
-1388 -1084 0
-1085 -1177 0
-1086 -1178 0
-1179 -1087 0
-1088 -1180 0
-1085 -1185 0
-1186 -1086 0
-1187 -1087 0
-1188 -1088 0
-1085 -1357 0
-1358 -1086 0
-1359 -1087 0
-1360 -1088 0
-1089 -1181 0
-1182 -1090 0
-1091 -1183 0
-1184 -1092 0
-1089 -1189 0
-1090 -1190 0
-1091 -1191 0
-1092 -1192 0
-1089 -1353 0
-1354 -1090 0
-1091 -1355 0
-1356 -1092 0
-1145 -1093 0
-1095 -1147 0
-1096 -1148 0
-1233 -1093 0
-1095 -1235 0
-1236 -1096 0
-1385 -1093 0
-1095 -1387 0
-1388 -1096 0
-1097 -1141 0
-1098 -1142 0
-1099 -1143 0
-1100 -1144 0
-1097 -1217 0
-1098 -1218 0
-1099 -1219 0
-1100 -1220 0
-1105 -1101 0
-1102 -1106 0
-1107 -1103 0
-1108 -1104 0
-1361 -1101 0
-1102 -1362 0
-1363 -1103 0
-1104 -1364 0
-1105 -1365 0
-1366 -1106 0
-1107 -1367 0
-1368 -1108 0
-1109 -1113 0
-1114 -1110 0
-1115 -1111 0
-1116 -1112 0
-1221 -1109 0
-1110 -1222 0
-1111 -1223 0
-1112 -1224 0
-1225 -1113 0
-1226 -1114 0
-1227 -1115 0
-1116 -1228 0
-1117 -1121 0
-1118 -1122 0
-1123 -1119 0
-1124 -1120 0
-1482 -1118 0
-1483 -1119 0
-1484 -1120 0
-1477 -1121 0
-1479 -1123 0
-1124 -1480 0
-1129 -1125 0
-1126 -1130 0
-1131 -1127 0
-1128 -1132 0
-1229 -1125 0
-1230 -1126 0
-1127 -1231 0
-1232 -1128 0
-1233 -1129 0
-1130 -1234 0
-1131 -1235 0
-1236 -1132 0
-1133 -1137 0
-1138 -1134 0
-1135 -1139 0
-1136 -1140 0
-1133 -1369 0
-1370 -1134 0
-1135 -1371 0
-1136 -1372 0
-1373 -1137 0
-1375 -1139 0
-1376 -1140 0
-1141 -1237 0
-1238 -1142 0
-1239 -1143 0
-1240 -1144 0
-1249 -1145 0
-1252 -1148 0
-1145 -1421 0
-1422 -1146 0
-1423 -1147 0
-1424 -1148 0
-1485 -1145 0
-1486 -1146 0
-1487 -1147 0
-1488 -1148 0
-1241 -1149 0
-1242 -1150 0
-1244 -1152 0
-1389 -1149 0
-1392 -1152 0
-1265 -1153 0
-1266 -1154 0
-1155 -1267 0
-1257 -1157 0
-1158 -1258 0
-1160 -1260 0
-1405 -1157 0
-1158 -1406 0
-1408 -1160 0
-1489 -1157 0
-1490 -1158 0
-1492 -1160 0
-1273 -1161 0
-1274 -1162 0
-1163 -1275 0
-1276 -1164 0
-1161 -1397 0
-1398 -1162 0
-1163 -1399 0
-1400 -1164 0
-1489 -1161 0
-1490 -1162 0
-1491 -1163 0
-1492 -1164 0
-1265 -1165 0
-1266 -1166 0
-1268 -1168 0
-1401 -1165 0
-1402 -1166 0
-1403 -1167 0
-1404 -1168 0
-1289 -1169 0
-1290 -1170 0
-1292 -1172 0
-1413 -1169 0
-1414 -1170 0
-1415 -1171 0
-1416 -1172 0
-1281 -1173 0
-1174 -1282 0
-1283 -1175 0
-1284 -1176 0
-1173 -1417 0
-1174 -1418 0
-1419 -1175 0
-1420 -1176 0
-1493 -1173 0
-1494 -1174 0
-1495 -1175 0
-1496 -1176 0
-1297 -1177 0
-1178 -1298 0
-1299 -1179 0
-1300 -1180 0
-1177 -1409 0
-1410 -1178 0
-1179 -1411 0
-1412 -1180 0
-1493 -1177 0
-1494 -1178 0
-1495 -1179 0
-1496 -1180 0
-1289 -1181 0
-1290 -1182 0
-1292 -1184 0
-1241 -1185 0
-1243 -1187 0
-1244 -1188 0
-1425 -1185 0
-1186 -1426 0
-1427 -1187 0
-1428 -1188 0
-1189 -1305 0
-1306 -1190 0
-1307 -1191 0
-1308 -1192 0
-1189 -1393 0
-1395 -1191 0
-1192 -1396 0
-1189 -1485 0
-1486 -1190 0
-1487 -1191 0
-1488 -1192 0
-1193 -1221 0
-1194 -1222 0
-1196 -1224 0
-1197 -1217 0
-1198 -1218 0
-1200 -1220 0
-1201 -1229 0
-1230 -1202 0
-1203 -1231 0
-1204 -1232 0
-1205 -1225 0
-1206 -1226 0
-1207 -1227 0
-1208 -1228 0
-1209 -1237 0
-1238 -1210 0
-1211 -1239 0
-1213 -1233 0
-1214 -1234 0
-1235 -1215 0
-1216 -1236 0
-1313 -1217 0
-1218 -1314 0
-1315 -1219 0
-1317 -1221 0
-1318 -1222 0
-1224 -1320 0
-1321 -1225 0
-1226 -1322 0
-1323 -1227 0
-1324 -1228 0
-1325 -1229 0
-1230 -1326 0
-1327 -1231 0
-1328 -1232 0
-1329 -1233 0
-1330 -1234 0
-1331 -1235 0
-1236 -1332 0
-1333 -1237 0
-1238 -1334 0
-1309 -1245 0
-1247 -1311 0
-1248 -1312 0
-1433 -1245 0
-1434 -1246 0
-1247 -1435 0
-1436 -1248 0
-1473 -1245 0
-1474 -1246 0
-1475 -1247 0
-1476 -1248 0
-1485 -1245 0
-1486 -1246 0
-1487 -1247 0
-1248 -1488 0
-1249 -1257 0
-1252 -1260 0
-1249 -1429 0
-1432 -1252 0
-1249 -1437 0
-1440 -1252 0
-1433 -1257 0
-1434 -1258 0
-1259 -1435 0
-1436 -1260 0
-1441 -1257 0
-1442 -1258 0
-1443 -1259 0
-1444 -1260 0
-1261 -1269 0
-1270 -1262 0
-1264 -1272 0
-1261 -1437 0
-1438 -1262 0
-1440 -1264 0
-1261 -1445 0
-1446 -1262 0
-1448 -1264 0
-1261 -1489 0
-1490 -1262 0
-1492 -1264 0
-1441 -1269 0
-1442 -1270 0
-1443 -1271 0
-1272 -1444 0
-1449 -1269 0
-1450 -1270 0
-1451 -1271 0
-1452 -1272 0
-1489 -1269 0
-1490 -1270 0
-1491 -1271 0
-1272 -1492 0
-1273 -1281 0
-1274 -1282 0
-1283 -1275 0
-1276 -1284 0
-1445 -1273 0
-1446 -1274 0
-1447 -1275 0
-1448 -1276 0
-1453 -1273 0
-1454 -1274 0
-1455 -1275 0
-1456 -1276 0
-1449 -1281 0
-1450 -1282 0
-1283 -1451 0
-1452 -1284 0
-1457 -1281 0
-1282 -1458 0
-1459 -1283 0
-1460 -1284 0
-1293 -1285 0
-1294 -1286 0
-1295 -1287 0
-1288 -1296 0
-1453 -1285 0
-1454 -1286 0
-1455 -1287 0
-1456 -1288 0
-1461 -1285 0
-1462 -1286 0
-1463 -1287 0
-1464 -1288 0
-1493 -1285 0
-1494 -1286 0
-1495 -1287 0
-1496 -1288 0
-1457 -1293 0
-1294 -1458 0
-1295 -1459 0
-1460 -1296 0
-1465 -1293 0
-1466 -1294 0
-1295 -1467 0
-1468 -1296 0
-1493 -1293 0
-1494 -1294 0
-1295 -1495 0
-1496 -1296 0
-1305 -1297 0
-1306 -1298 0
-1307 -1299 0
-1308 -1300 0
-1461 -1297 0
-1462 -1298 0
-1463 -1299 0
-1464 -1300 0
-1469 -1297 0
-1470 -1298 0
-1471 -1299 0
-1472 -1300 0
-1465 -1305 0
-1466 -1306 0
-1307 -1467 0
-1468 -1308 0
-1473 -1305 0
-1306 -1474 0
-1475 -1307 0
-1476 -1308 0
-1429 -1309 0
-1431 -1311 0
-1312 -1432 0
-1309 -1469 0
-1471 -1311 0
-1312 -1472 0
-1485 -1309 0
-1487 -1311 0
-1488 -1312 0
-1361 -1337 0
-1338 -1362 0
-1363 -1339 0
-1364 -1340 0
-1365 -1341 0
-1366 -1342 0
-1367 -1343 0
-1344 -1368 0
-1481 -1345 0
-1482 -1346 0
-1348 -1484 0
-1477 -1349 0
-1479 -1351 0
-1480 -1352 0
-1369 -1353 0
-1354 -1370 0
-1371 -1355 0
-1356 -1372 0
-1373 -1357 0
-1375 -1359 0
-1360 -1376 0
-1361 -1421 0
-1362 -1422 0
-1363 -1423 0
-1424 -1364 0
-1365 -1405 0
-1366 -1406 0
-1367 -1407 0
-1408 -1368 0
-1369 -1409 0
-1410 -1370 0
-1371 -1411 0
-1372 -1412 0
-1373 -1393 0
-1375 -1395 0
-1376 -1396 0
-1721 -1377 0
-1378 -1722 0
-1724 -1380 0
-1381 -1729 0
-1382 -1730 0
-1731 -1383 0
-1732 -1384 0
-1385 -1737 0
-1738 -1386 0
-1739 -1387 0
-1740 -1388 0
-1485 -1393 0
-1487 -1395 0
-1488 -1396 0
-1489 -1397 0
-1490 -1398 0
-1491 -1399 0
-1400 -1492 0
-1477 -1405 0
-1478 -1406 0
-1479 -1407 0
-1480 -1408 0
-1489 -1405 0
-1490 -1406 0
-1491 -1407 0
-1492 -1408 0
-1481 -1409 0
-1482 -1410 0
-1483 -1411 0
-1484 -1412 0
-1493 -1409 0
-1494 -1410 0
-1495 -1411 0
-1496 -1412 0
-1493 -1417 0
-1494 -1418 0
-1495 -1419 0
-1496 -1420 0
-1485 -1421 0
-1486 -1422 0
-1487 -1423 0
-1488 -1424 0
-1429 -1925 0
-1431 -1927 0
-1928 -1432 0
-1433 -1929 0
-1434 -1930 0
-1931 -1435 0
-1932 -1436 0
-1933 -1437 0
-1438 -1934 0
-1936 -1440 0
-1441 -1937 0
-1442 -1938 0
-1939 -1443 0
-1940 -1444 0
-1941 -1445 0
-1446 -1942 0
-1447 -1943 0
-1449 -1945 0
-1450 -1946 0
-1947 -1451 0
-1948 -1452 0
-1453 -1949 0
-1951 -1455 0
-1952 -1456 0
-1457 -1953 0
-1954 -1458 0
-1955 -1459 0
-1956 -1460 0
-1461 -1957 0
-1462 -1958 0
-1959 -1463 0
-1960 -1464 0
-1465 -1961 0
-1466 -1962 0
-1963 -1467 0
-1964 -1468 0
-1965 -1469 0
-1966 -1470 0
-1967 -1471 0
-1473 -1969 0
-1970 -1474 0
-1971 -1475 0
-1972 -1476 0
-1497 -1557 0
-1558 -1498 0
-1499 -1559 0
-1500 -1560 0
-1497 -1585 0
-1586 -1498 0
-1499 -1587 0
-1500 -1588 0
-1498 -1622 0
-1499 -1623 0
-1500 -1624 0
-1497 -1641 0
-1642 -1498 0
-1499 -1643 0
-1500 -1644 0
-1497 -1689 0
-1690 -1498 0
-1691 -1499 0
-1500 -1692 0
-1501 -1565 0
-1566 -1502 0
-1503 -1567 0
-1504 -1568 0
-1501 -1573 0
-1502 -1574 0
-1503 -1575 0
-1576 -1504 0
-1502 -1590 0
-1503 -1591 0
-1504 -1592 0
-1501 -1645 0
-1646 -1502 0
-1503 -1647 0
-1648 -1504 0
-1501 -1705 0
-1706 -1502 0
-1503 -1707 0
-1504 -1708 0
-1505 -1569 0
-1506 -1570 0
-1507 -1571 0
-1508 -1572 0
-1505 -1577 0
-1578 -1506 0
-1507 -1579 0
-1508 -1580 0
-1506 -1618 0
-1507 -1619 0
-1508 -1620 0
-1505 -1637 0
-1638 -1506 0
-1507 -1639 0
-1508 -1640 0
-1505 -1665 0
-1666 -1506 0
-1507 -1667 0
-1508 -1668 0
-1710 -1506 0
-1507 -1711 0
-1508 -1712 0
-1509 -1545 0
-1546 -1510 0
-1511 -1547 0
-1512 -1548 0
-1549 -1509 0
-1550 -1510 0
-1551 -1511 0
-1512 -1552 0
-1573 -1509 0
-1574 -1510 0
-1575 -1511 0
-1576 -1512 0
-1510 -1602 0
-1511 -1603 0
-1604 -1512 0
-1630 -1510 0
-1631 -1511 0
-1512 -1632 0
-1653 -1509 0
-1654 -1510 0
-1655 -1511 0
-1656 -1512 0
-1509 -1677 0
-1678 -1510 0
-1679 -1511 0
-1680 -1512 0
-1713 -1509 0
-1714 -1510 0
-1715 -1511 0
-1716 -1512 0
-1509 -1717 0
-1510 -1718 0
-1719 -1511 0
-1512 -1720 0
-1721 -1509 0
-1722 -1510 0
-1723 -1511 0
-1512 -1724 0
-1741 -1509 0
-1742 -1510 0
-1743 -1511 0
-1744 -1512 0
-1745 -1509 0
-1746 -1510 0
-1747 -1511 0
-1512 -1748 0
-1789 -1509 0
-1790 -1510 0
-1791 -1511 0
-1512 -1792 0
-1549 -1513 0
-1550 -1514 0
-1515 -1551 0
-1516 -1552 0
-1513 -1553 0
-1554 -1514 0
-1515 -1555 0
-1516 -1556 0
-1581 -1513 0
-1514 -1582 0
-1583 -1515 0
-1584 -1516 0
-1514 -1590 0
-1515 -1591 0
-1516 -1592 0
-1514 -1610 0
-1515 -1611 0
-1516 -1612 0
-1673 -1513 0
-1674 -1514 0
-1675 -1515 0
-1676 -1516 0
-1685 -1513 0
-1686 -1514 0
-1687 -1515 0
-1688 -1516 0
-1513 -1721 0
-1514 -1722 0
-1723 -1515 0
-1516 -1724 0
-1513 -1725 0
-1514 -1726 0
-1727 -1515 0
-1728 -1516 0
-1513 -1749 0
-1750 -1514 0
-1751 -1515 0
-1752 -1516 0
-1753 -1513 0
-1754 -1514 0
-1755 -1515 0
-1756 -1516 0
-1513 -1793 0
-1514 -1794 0
-1515 -1795 0
-1516 -1796 0
-1533 -1517 0
-1518 -1534 0
-1519 -1535 0
-1520 -1536 0
-1517 -1553 0
-1554 -1518 0
-1519 -1555 0
-1520 -1556 0
-1517 -1561 0
-1518 -1562 0
-1563 -1519 0
-1564 -1520 0
-1598 -1518 0
-1519 -1599 0
-1520 -1600 0
-1518 -1618 0
-1519 -1619 0
-1620 -1520 0
-1657 -1517 0
-1658 -1518 0
-1659 -1519 0
-1660 -1520 0
-1681 -1517 0
-1682 -1518 0
-1683 -1519 0
-1684 -1520 0
-1517 -1693 0
-1694 -1518 0
-1695 -1519 0
-1696 -1520 0
-1517 -1725 0
-1726 -1518 0
-1727 -1519 0
-1728 -1520 0
-1517 -1729 0
-1730 -1518 0
-1731 -1519 0
-1732 -1520 0
-1757 -1517 0
-1758 -1518 0
-1759 -1519 0
-1760 -1520 0
-1761 -1517 0
-1762 -1518 0
-1519 -1763 0
-1764 -1520 0
-1517 -1797 0
-1518 -1798 0
-1519 -1799 0
-1800 -1520 0
-1533 -1521 0
-1534 -1522 0
-1523 -1535 0
-1524 -1536 0
-1537 -1521 0
-1522 -1538 0
-1523 -1539 0
-1524 -1540 0
-1569 -1521 0
-1570 -1522 0
-1571 -1523 0
-1572 -1524 0
-1585 -1521 0
-1586 -1522 0
-1587 -1523 0
-1524 -1588 0
-1606 -1522 0
-1523 -1607 0
-1524 -1608 0
-1626 -1522 0
-1523 -1627 0
-1524 -1628 0
-1661 -1521 0
-1662 -1522 0
-1663 -1523 0
-1664 -1524 0
-1665 -1521 0
-1666 -1522 0
-1667 -1523 0
-1668 -1524 0
-1689 -1521 0
-1690 -1522 0
-1691 -1523 0
-1692 -1524 0
-1701 -1521 0
-1702 -1522 0
-1703 -1523 0
-1704 -1524 0
-1729 -1521 0
-1730 -1522 0
-1731 -1523 0
-1732 -1524 0
-1733 -1521 0
-1734 -1522 0
-1735 -1523 0
-1736 -1524 0
-1765 -1521 0
-1766 -1522 0
-1767 -1523 0
-1768 -1524 0
-1769 -1521 0
-1770 -1522 0
-1771 -1523 0
-1772 -1524 0
-1801 -1521 0
-1522 -1802 0
-1523 -1803 0
-1804 -1524 0
-1525 -1537 0
-1526 -1538 0
-1527 -1539 0
-1528 -1540 0
-1541 -1525 0
-1526 -1542 0
-1527 -1543 0
-1528 -1544 0
-1525 -1557 0
-1558 -1526 0
-1527 -1559 0
-1560 -1528 0
-1525 -1577 0
-1578 -1526 0
-1579 -1527 0
-1580 -1528 0
-1614 -1526 0
-1615 -1527 0
-1528 -1616 0
-1526 -1634 0
-1527 -1635 0
-1528 -1636 0
-1697 -1525 0
-1698 -1526 0
-1699 -1527 0
-1700 -1528 0
-1525 -1709 0
-1710 -1526 0
-1711 -1527 0
-1712 -1528 0
-1525 -1733 0
-1526 -1734 0
-1735 -1527 0
-1736 -1528 0
-1525 -1737 0
-1738 -1526 0
-1739 -1527 0
-1528 -1740 0
-1773 -1525 0
-1774 -1526 0
-1775 -1527 0
-1776 -1528 0
-1777 -1525 0
-1778 -1526 0
-1779 -1527 0
-1780 -1528 0
-1805 -1525 0
-1806 -1526 0
-1807 -1527 0
-1528 -1808 0
-1541 -1529 0
-1530 -1542 0
-1531 -1543 0
-1544 -1532 0
-1529 -1545 0
-1546 -1530 0
-1531 -1547 0
-1548 -1532 0
-1529 -1565 0
-1566 -1530 0
-1531 -1567 0
-1568 -1532 0
-1594 -1530 0
-1531 -1595 0
-1596 -1532 0
-1622 -1530 0
-1623 -1531 0
-1532 -1624 0
-1649 -1529 0
-1650 -1530 0
-1651 -1531 0
-1652 -1532 0
-1669 -1529 0
-1670 -1530 0
-1671 -1531 0
-1672 -1532 0
-1529 -1705 0
-1706 -1530 0
-1707 -1531 0
-1708 -1532 0
-1529 -1717 0
-1530 -1718 0
-1719 -1531 0
-1532 -1720 0
-1529 -1737 0
-1738 -1530 0
-1739 -1531 0
-1740 -1532 0
-1781 -1529 0
-1782 -1530 0
-1783 -1531 0
-1784 -1532 0
-1785 -1529 0
-1786 -1530 0
-1787 -1531 0
-1788 -1532 0
-1809 -1529 0
-1810 -1530 0
-1531 -1811 0
-1812 -1532 0
-1533 -1541 0
-1534 -1542 0
-1535 -1543 0
-1536 -1544 0
-1533 -1549 0
-1550 -1534 0
-1535 -1551 0
-1536 -1552 0
-1533 -1569 0
-1570 -1534 0
-1571 -1535 0
-1572 -1536 0
-1598 -1534 0
-1535 -1599 0
-1536 -1600 0
-1626 -1534 0
-1535 -1627 0
-1536 -1628 0
-1533 -1673 0
-1674 -1534 0
-1675 -1535 0
-1676 -1536 0
-1533 -1709 0
-1710 -1534 0
-1711 -1535 0
-1712 -1536 0
-1533 -1789 0
-1790 -1534 0
-1535 -1791 0
-1536 -1792 0
-1533 -1809 0
-1810 -1534 0
-1535 -1811 0
-1812 -1536 0
-1533 -1833 0
-1834 -1534 0
-1535 -1835 0
-1836 -1536 0
-1545 -1537 0
-1546 -1538 0
-1539 -1547 0
-1548 -1540 0
-1553 -1537 0
-1554 -1538 0
-1539 -1555 0
-1556 -1540 0
-1537 -1577 0
-1578 -1538 0
-1579 -1539 0
-1580 -1540 0
-1537 -1585 0
-1586 -1538 0
-1587 -1539 0
-1588 -1540 0
-1606 -1538 0
-1607 -1539 0
-1608 -1540 0
-1634 -1538 0
-1635 -1539 0
-1636 -1540 0
-1537 -1637 0
-1638 -1538 0
-1639 -1539 0
-1640 -1540 0
-1537 -1641 0
-1642 -1538 0
-1643 -1539 0
-1644 -1540 0
-1669 -1537 0
-1670 -1538 0
-1671 -1539 0
-1672 -1540 0
-1681 -1537 0
-1682 -1538 0
-1683 -1539 0
-1684 -1540 0
-1789 -1537 0
-1790 -1538 0
-1791 -1539 0
-1540 -1792 0
-1793 -1537 0
-1794 -1538 0
-1795 -1539 0
-1796 -1540 0
-1813 -1537 0
-1814 -1538 0
-1815 -1539 0
-1816 -1540 0
-1549 -1541 0
-1550 -1542 0
-1543 -1551 0
-1544 -1552 0
-1541 -1557 0
-1558 -1542 0
-1543 -1559 0
-1560 -1544 0
-1594 -1542 0
-1543 -1595 0
-1596 -1544 0
-1614 -1542 0
-1615 -1543 0
-1616 -1544 0
-1541 -1677 0
-1678 -1542 0
-1679 -1543 0
-1680 -1544 0
-1541 -1689 0
-1690 -1542 0
-1691 -1543 0
-1692 -1544 0
-1541 -1793 0
-1794 -1542 0
-1795 -1543 0
-1544 -1796 0
-1541 -1797 0
-1798 -1542 0
-1799 -1543 0
-1800 -1544 0
-1817 -1541 0
-1818 -1542 0
-1819 -1543 0
-1820 -1544 0
-1553 -1545 0
-1554 -1546 0
-1555 -1547 0
-1556 -1548 0
-1545 -1565 0
-1566 -1546 0
-1567 -1547 0
-1548 -1568 0
-1546 -1602 0
-1603 -1547 0
-1548 -1604 0
-1622 -1546 0
-1623 -1547 0
-1548 -1624 0
-1641 -1545 0
-1642 -1546 0
-1643 -1547 0
-1644 -1548 0
-1545 -1645 0
-1646 -1546 0
-1647 -1547 0
-1648 -1548 0
-1685 -1545 0
-1686 -1546 0
-1687 -1547 0
-1688 -1548 0
-1697 -1545 0
-1698 -1546 0
-1699 -1547 0
-1700 -1548 0
-1797 -1545 0
-1798 -1546 0
-1799 -1547 0
-1800 -1548 0
-1801 -1545 0
-1546 -1802 0
-1803 -1547 0
-1804 -1548 0
-1549 -1573 0
-1550 -1574 0
-1575 -1551 0
-1576 -1552 0
-1550 -1610 0
-1611 -1551 0
-1552 -1612 0
-1630 -1550 0
-1551 -1631 0
-1632 -1552 0
-1549 -1693 0
-1694 -1550 0
-1695 -1551 0
-1696 -1552 0
-1549 -1705 0
-1706 -1550 0
-1707 -1551 0
-1708 -1552 0
-1549 -1801 0
-1550 -1802 0
-1803 -1551 0
-1804 -1552 0
-1805 -1549 0
-1806 -1550 0
-1807 -1551 0
-1552 -1808 0
-1549 -1821 0
-1822 -1550 0
-1823 -1551 0
-1824 -1552 0
-1825 -1549 0
-1550 -1826 0
-1827 -1551 0
-1828 -1552 0
-1561 -1553 0
-1554 -1562 0
-1563 -1555 0
-1564 -1556 0
-1581 -1553 0
-1554 -1582 0
-1583 -1555 0
-1584 -1556 0
-1554 -1590 0
-1591 -1555 0
-1592 -1556 0
-1554 -1618 0
-1619 -1555 0
-1620 -1556 0
-1553 -1637 0
-1638 -1554 0
-1639 -1555 0
-1640 -1556 0
-1553 -1645 0
-1646 -1554 0
-1647 -1555 0
-1648 -1556 0
-1701 -1553 0
-1702 -1554 0
-1703 -1555 0
-1704 -1556 0
-1713 -1553 0
-1714 -1554 0
-1715 -1555 0
-1716 -1556 0
-1805 -1553 0
-1806 -1554 0
-1807 -1555 0
-1808 -1556 0
-1809 -1553 0
-1554 -1810 0
-1811 -1555 0
-1556 -1812 0
-1829 -1553 0
-1830 -1554 0
-1831 -1555 0
-1832 -1556 0
-1558 -1630 0
-1631 -1559 0
-1560 -1632 0
-1677 -1557 0
-1678 -1558 0
-1679 -1559 0
-1680 -1560 0
-1785 -1557 0
-1786 -1558 0
-1787 -1559 0
-1560 -1788 0
-1813 -1557 0
-1814 -1558 0
-1815 -1559 0
-1560 -1816 0
-1833 -1557 0
-1834 -1558 0
-1835 -1559 0
-1836 -1560 0
-1837 -1557 0
-1558 -1838 0
-1839 -1559 0
-1560 -1840 0
-1562 -1602 0
-1563 -1603 0
-1564 -1604 0
-1657 -1561 0
-1658 -1562 0
-1659 -1563 0
-1660 -1564 0
-1713 -1561 0
-1714 -1562 0
-1563 -1715 0
-1564 -1716 0
-1749 -1561 0
-1750 -1562 0
-1751 -1563 0
-1752 -1564 0
-1841 -1561 0
-1842 -1562 0
-1563 -1843 0
-1564 -1844 0
-1566 -1590 0
-1567 -1591 0
-1568 -1592 0
-1649 -1565 0
-1650 -1566 0
-1651 -1567 0
-1652 -1568 0
-1685 -1565 0
-1686 -1566 0
-1687 -1567 0
-1688 -1568 0
-1745 -1565 0
-1746 -1566 0
-1747 -1567 0
-1568 -1748 0
-1813 -1565 0
-1566 -1814 0
-1815 -1567 0
-1568 -1816 0
-1817 -1565 0
-1566 -1818 0
-1819 -1567 0
-1820 -1568 0
-1845 -1565 0
-1566 -1846 0
-1847 -1567 0
-1568 -1848 0
-1570 -1610 0
-1571 -1611 0
-1572 -1612 0
-1661 -1569 0
-1662 -1570 0
-1663 -1571 0
-1664 -1572 0
-1673 -1569 0
-1674 -1570 0
-1675 -1571 0
-1676 -1572 0
-1757 -1569 0
-1758 -1570 0
-1759 -1571 0
-1760 -1572 0
-1849 -1569 0
-1570 -1850 0
-1851 -1571 0
-1852 -1572 0
-1598 -1574 0
-1575 -1599 0
-1576 -1600 0
-1653 -1573 0
-1654 -1574 0
-1655 -1575 0
-1656 -1576 0
-1693 -1573 0
-1694 -1574 0
-1695 -1575 0
-1576 -1696 0
-1753 -1573 0
-1754 -1574 0
-1755 -1575 0
-1756 -1576 0
-1817 -1573 0
-1818 -1574 0
-1819 -1575 0
-1820 -1576 0
-1853 -1573 0
-1574 -1854 0
-1855 -1575 0
-1856 -1576 0
-1578 -1618 0
-1579 -1619 0
-1580 -1620 0
-1681 -1577 0
-1682 -1578 0
-1683 -1579 0
-1684 -1580 0
-1765 -1577 0
-1766 -1578 0
-1767 -1579 0
-1768 -1580 0
-1857 -1577 0
-1578 -1858 0
-1859 -1579 0
-1860 -1580 0
-1582 -1606 0
-1583 -1607 0
-1584 -1608 0
-1581 -1701 0
-1702 -1582 0
-1583 -1703 0
-1704 -1584 0
-1581 -1761 0
-1762 -1582 0
-1583 -1763 0
-1764 -1584 0
-1581 -1821 0
-1822 -1582 0
-1583 -1823 0
-1824 -1584 0
-1581 -1861 0
-1862 -1582 0
-1583 -1863 0
-1864 -1584 0
-1586 -1622 0
-1587 -1623 0
-1588 -1624 0
-1665 -1585 0
-1666 -1586 0
-1667 -1587 0
-1668 -1588 0
-1669 -1585 0
-1670 -1586 0
-1671 -1587 0
-1672 -1588 0
-1778 -1586 0
-1779 -1587 0
-1780 -1588 0
-1829 -1585 0
-1830 -1586 0
-1587 -1831 0
-1832 -1588 0
-1833 -1585 0
-1834 -1586 0
-1587 -1835 0
-1836 -1588 0
-1877 -1585 0
-1586 -1878 0
-1587 -1879 0
-1880 -1588 0
-1598 -1590 0
-1599 -1591 0
-1592 -1600 0
-1630 -1590 0
-1631 -1591 0
-1592 -1632 0
-1590 -1722 0
-1723 -1591 0
-1592 -1724 0
-1590 -1810 0
-1811 -1591 0
-1812 -1592 0
-1814 -1590 0
-1815 -1591 0
-1816 -1592 0
-1842 -1590 0
-1843 -1591 0
-1844 -1592 0
-1882 -1590 0
-1883 -1591 0
-1884 -1592 0
-1590 -1886 0
-1887 -1591 0
-1592 -1888 0
-1590 -1902 0
-1903 -1591 0
-1904 -1592 0
-1926 -1590 0
-1591 -1927 0
-1592 -1928 0
-1594 -1602 0
-1603 -1595 0
-1604 -1596 0
-1594 -1634 0
-1635 -1595 0
-1596 -1636 0
-1594 -1718 0
-1719 -1595 0
-1596 -1720 0
-1594 -1794 0
-1795 -1595 0
-1596 -1796 0
-1594 -1838 0
-1839 -1595 0
-1596 -1840 0
-1594 -1846 0
-1847 -1595 0
-1848 -1596 0
-1594 -1886 0
-1887 -1595 0
-1596 -1888 0
-1594 -1906 0
-1907 -1595 0
-1908 -1596 0
-1594 -1930 0
-1931 -1595 0
-1596 -1932 0
-1598 -1606 0
-1607 -1599 0
-1608 -1600 0
-1598 -1726 0
-1727 -1599 0
-1728 -1600 0
-1598 -1790 0
-1791 -1599 0
-1792 -1600 0
-1598 -1818 0
-1819 -1599 0
-1820 -1600 0
-1598 -1842 0
-1843 -1599 0
-1844 -1600 0
-1598 -1850 0
-1851 -1599 0
-1852 -1600 0
-1598 -1906 0
-1599 -1907 0
-1908 -1600 0
-1598 -1934 0
-1935 -1599 0
-1936 -1600 0
-1610 -1602 0
-1611 -1603 0
-1604 -1612 0
-1722 -1602 0
-1723 -1603 0
-1604 -1724 0
-1798 -1602 0
-1799 -1603 0
-1800 -1604 0
-1602 -1846 0
-1847 -1603 0
-1604 -1848 0
-1854 -1602 0
-1855 -1603 0
-1856 -1604 0
-1910 -1602 0
-1911 -1603 0
-1912 -1604 0
-1938 -1602 0
-1939 -1603 0
-1940 -1604 0
-1614 -1606 0
-1615 -1607 0
-1616 -1608 0
-1730 -1606 0
-1731 -1607 0
-1732 -1608 0
-1606 -1794 0
-1607 -1795 0
-1608 -1796 0
-1850 -1606 0
-1851 -1607 0
-1852 -1608 0
-1858 -1606 0
-1859 -1607 0
-1860 -1608 0
-1890 -1606 0
-1891 -1607 0
-1892 -1608 0
-1606 -1910 0
-1911 -1607 0
-1912 -1608 0
-1942 -1606 0
-1607 -1943 0
-1944 -1608 0
-1618 -1610 0
-1619 -1611 0
-1620 -1612 0
-1726 -1610 0
-1727 -1611 0
-1728 -1612 0
-1610 -1802 0
-1611 -1803 0
-1804 -1612 0
-1854 -1610 0
-1855 -1611 0
-1856 -1612 0
-1862 -1610 0
-1863 -1611 0
-1864 -1612 0
-1890 -1610 0
-1891 -1611 0
-1892 -1612 0
-1914 -1610 0
-1915 -1611 0
-1916 -1612 0
-1946 -1610 0
-1947 -1611 0
-1948 -1612 0
-1622 -1614 0
-1615 -1623 0
-1616 -1624 0
-1614 -1734 0
-1735 -1615 0
-1736 -1616 0
-1614 -1798 0
-1799 -1615 0
-1800 -1616 0
-1822 -1614 0
-1823 -1615 0
-1824 -1616 0
-1614 -1858 0
-1859 -1615 0
-1860 -1616 0
-1866 -1614 0
-1867 -1615 0
-1868 -1616 0
-1894 -1614 0
-1895 -1615 0
-1896 -1616 0
-1914 -1614 0
-1915 -1615 0
-1616 -1916 0
-1950 -1614 0
-1615 -1951 0
-1952 -1616 0
-1626 -1618 0
-1627 -1619 0
-1620 -1628 0
-1730 -1618 0
-1731 -1619 0
-1732 -1620 0
-1806 -1618 0
-1807 -1619 0
-1620 -1808 0
-1862 -1618 0
-1863 -1619 0
-1864 -1620 0
-1618 -1870 0
-1871 -1619 0
-1620 -1872 0
-1894 -1618 0
-1895 -1619 0
-1896 -1620 0
-1918 -1618 0
-1919 -1619 0
-1920 -1620 0
-1954 -1618 0
-1955 -1619 0
-1956 -1620 0
-1630 -1622 0
-1623 -1631 0
-1632 -1624 0
-1622 -1738 0
-1739 -1623 0
-1740 -1624 0
-1622 -1802 0
-1803 -1623 0
-1804 -1624 0
-1830 -1622 0
-1831 -1623 0
-1832 -1624 0
-1866 -1622 0
-1867 -1623 0
-1868 -1624 0
-1874 -1622 0
-1875 -1623 0
-1876 -1624 0
-1918 -1622 0
-1919 -1623 0
-1920 -1624 0
-1958 -1622 0
-1959 -1623 0
-1960 -1624 0
-1626 -1634 0
-1627 -1635 0
-1636 -1628 0
-1626 -1734 0
-1735 -1627 0
-1736 -1628 0
-1626 -1810 0
-1627 -1811 0
-1812 -1628 0
-1626 -1826 0
-1827 -1627 0
-1828 -1628 0
-1626 -1870 0
-1871 -1627 0
-1872 -1628 0
-1626 -1878 0
-1627 -1879 0
-1880 -1628 0
-1626 -1922 0
-1923 -1627 0
-1924 -1628 0
-1626 -1962 0
-1963 -1627 0
-1964 -1628 0
-1630 -1718 0
-1719 -1631 0
-1632 -1720 0
-1630 -1806 0
-1807 -1631 0
-1808 -1632 0
-1834 -1630 0
-1835 -1631 0
-1836 -1632 0
-1874 -1630 0
-1875 -1631 0
-1876 -1632 0
-1882 -1630 0
-1883 -1631 0
-1884 -1632 0
-1630 -1898 0
-1899 -1631 0
-1900 -1632 0
-1630 -1922 0
-1923 -1631 0
-1924 -1632 0
-1630 -1966 0
-1967 -1631 0
-1968 -1632 0
-1738 -1634 0
-1739 -1635 0
-1740 -1636 0
-1790 -1634 0
-1791 -1635 0
-1636 -1792 0
-1634 -1838 0
-1839 -1635 0
-1636 -1840 0
-1878 -1634 0
-1879 -1635 0
-1880 -1636 0
-1898 -1634 0
-1899 -1635 0
-1900 -1636 0
-1902 -1634 0
-1903 -1635 0
-1904 -1636 0
-1970 -1634 0
-1971 -1635 0
-1636 -1972 0
-1638 -1674 0
-1675 -1639 0
-1640 -1676 0
-1709 -1637 0
-1638 -1710 0
-1639 -1711 0
-1640 -1712 0
-1677 -1641 0
-1642 -1678 0
-1643 -1679 0
-1644 -1680 0
-1689 -1641 0
-1690 -1642 0
-1643 -1691 0
-1644 -1692 0
-1693 -1645 0
-1646 -1694 0
-1695 -1647 0
-1648 -1696 0
-1705 -1645 0
-1646 -1706 0
-1647 -1707 0
-1648 -1708 0
-1649 -1677 0
-1650 -1678 0
-1651 -1679 0
-1652 -1680 0
-1649 -1785 0
-1650 -1786 0
-1651 -1787 0
-1652 -1788 0
-1649 -1901 0
-1650 -1902 0
-1651 -1903 0
-1652 -1904 0
-1649 -1929 0
-1650 -1930 0
-1651 -1931 0
-1652 -1932 0
-1653 -1685 0
-1654 -1686 0
-1655 -1687 0
-1688 -1656 0
-1653 -1745 0
-1654 -1746 0
-1655 -1747 0
-1656 -1748 0
-1653 -1905 0
-1654 -1906 0
-1655 -1907 0
-1656 -1908 0
-1653 -1937 0
-1654 -1938 0
-1655 -1939 0
-1940 -1656 0
-1673 -1657 0
-1658 -1674 0
-1659 -1675 0
-1660 -1676 0
-1657 -1757 0
-1658 -1758 0
-1659 -1759 0
-1660 -1760 0
-1657 -1909 0
-1658 -1910 0
-1659 -1911 0
-1660 -1912 0
-1933 -1657 0
-1658 -1934 0
-1659 -1935 0
-1660 -1936 0
-1661 -1681 0
-1682 -1662 0
-1663 -1683 0
-1684 -1664 0
-1661 -1765 0
-1662 -1766 0
-1767 -1663 0
-1664 -1768 0
-1661 -1913 0
-1662 -1914 0
-1663 -1915 0
-1664 -1916 0
-1661 -1941 0
-1662 -1942 0
-1663 -1943 0
-1664 -1944 0
-1666 -1710 0
-1667 -1711 0
-1668 -1712 0
-1769 -1665 0
-1770 -1666 0
-1771 -1667 0
-1668 -1772 0
-1665 -1917 0
-1666 -1918 0
-1667 -1919 0
-1668 -1920 0
-1665 -1961 0
-1666 -1962 0
-1667 -1963 0
-1668 -1964 0
-1669 -1809 0
-1670 -1810 0
-1671 -1811 0
-1672 -1812 0
-1813 -1669 0
-1670 -1814 0
-1671 -1815 0
-1672 -1816 0
-1669 -1969 0
-1670 -1970 0
-1971 -1671 0
-1672 -1972 0
-1669 -1973 0
-1974 -1670 0
-1671 -1975 0
-1976 -1672 0
-1673 -1793 0
-1674 -1794 0
-1675 -1795 0
-1676 -1796 0
-1673 -1933 0
-1674 -1934 0
-1935 -1675 0
-1936 -1676 0
-1789 -1677 0
-1678 -1790 0
-1679 -1791 0
-1680 -1792 0
-1817 -1677 0
-1678 -1818 0
-1819 -1679 0
-1820 -1680 0
-1677 -1929 0
-1678 -1930 0
-1679 -1931 0
-1680 -1932 0
-1681 -1797 0
-1682 -1798 0
-1683 -1799 0
-1684 -1800 0
-1941 -1681 0
-1682 -1942 0
-1683 -1943 0
-1944 -1684 0
-1685 -1793 0
-1686 -1794 0
-1687 -1795 0
-1688 -1796 0
-1685 -1937 0
-1686 -1938 0
-1939 -1687 0
-1940 -1688 0
-1977 -1685 0
-1978 -1686 0
-1979 -1687 0
-1980 -1688 0
-1801 -1689 0
-1690 -1802 0
-1691 -1803 0
-1692 -1804 0
-1690 -1950 0
-1691 -1951 0
-1692 -1952 0
-1797 -1693 0
-1694 -1798 0
-1695 -1799 0
-1696 -1800 0
-1821 -1693 0
-1694 -1822 0
-1695 -1823 0
-1696 -1824 0
-1693 -1945 0
-1694 -1946 0
-1695 -1947 0
-1696 -1948 0
-1697 -1805 0
-1698 -1806 0
-1699 -1807 0
-1700 -1808 0
-1697 -1957 0
-1698 -1958 0
-1959 -1699 0
-1960 -1700 0
-1982 -1698 0
-1983 -1699 0
-1984 -1700 0
-1801 -1701 0
-1702 -1802 0
-1703 -1803 0
-1704 -1804 0
-1829 -1701 0
-1702 -1830 0
-1703 -1831 0
-1704 -1832 0
-1701 -1953 0
-1702 -1954 0
-1955 -1703 0
-1956 -1704 0
-1809 -1705 0
-1706 -1810 0
-1707 -1811 0
-1708 -1812 0
-1825 -1705 0
-1706 -1826 0
-1827 -1707 0
-1708 -1828 0
-1965 -1705 0
-1706 -1966 0
-1707 -1967 0
-1708 -1968 0
-1805 -1709 0
-1710 -1806 0
-1711 -1807 0
-1712 -1808 0
-1833 -1709 0
-1710 -1834 0
-1711 -1835 0
-1836 -1712 0
-1709 -1961 0
-1710 -1962 0
-1963 -1711 0
-1712 -1964 0
-1985 -1709 0
-1710 -1986 0
-1987 -1711 0
-1988 -1712 0
-1713 -1789 0
-1714 -1790 0
-1715 -1791 0
-1716 -1792 0
-1713 -1925 0
-1714 -1926 0
-1715 -1927 0
-1716 -1928 0
-1745 -1717 0
-1746 -1718 0
-1747 -1719 0
-1748 -1720 0
-1781 -1717 0
-1782 -1718 0
-1783 -1719 0
-1784 -1720 0
-1885 -1717 0
-1718 -1886 0
-1887 -1719 0
-1888 -1720 0
-1897 -1717 0
-1898 -1718 0
-1899 -1719 0
-1900 -1720 0
-1973 -1717 0
-1974 -1718 0
-1975 -1719 0
-1976 -1720 0
-1741 -1721 0
-1742 -1722 0
-1743 -1723 0
-1744 -1724 0
-1753 -1721 0
-1754 -1722 0
-1755 -1723 0
-1756 -1724 0
-1885 -1721 0
-1722 -1886 0
-1723 -1887 0
-1888 -1724 0
-1749 -1725 0
-1750 -1726 0
-1751 -1727 0
-1752 -1728 0
-1761 -1725 0
-1762 -1726 0
-1727 -1763 0
-1764 -1728 0
-1889 -1725 0
-1890 -1726 0
-1727 -1891 0
-1728 -1892 0
-1977 -1725 0
-1978 -1726 0
-1979 -1727 0
-1980 -1728 0
-1757 -1729 0
-1758 -1730 0
-1759 -1731 0
-1760 -1732 0
-1769 -1729 0
-1770 -1730 0
-1771 -1731 0
-1772 -1732 0
-1889 -1729 0
-1890 -1730 0
-1891 -1731 0
-1892 -1732 0
-1893 -1729 0
-1894 -1730 0
-1731 -1895 0
-1896 -1732 0
-1765 -1733 0
-1766 -1734 0
-1767 -1735 0
-1768 -1736 0
-1777 -1733 0
-1778 -1734 0
-1779 -1735 0
-1780 -1736 0
-1893 -1733 0
-1894 -1734 0
-1735 -1895 0
-1896 -1736 0
-1981 -1733 0
-1982 -1734 0
-1983 -1735 0
-1984 -1736 0
-1773 -1737 0
-1774 -1738 0
-1739 -1775 0
-1776 -1740 0
-1785 -1737 0
-1786 -1738 0
-1739 -1787 0
-1788 -1740 0
-1897 -1737 0
-1898 -1738 0
-1739 -1899 0
-1740 -1900 0
-1985 -1737 0
-1986 -1738 0
-1987 -1739 0
-1988 -1740 0
-1741 -1881 0
-1742 -1882 0
-1743 -1883 0
-1744 -1884 0
-1741 -1929 0
-1742 -1930 0
-1743 -1931 0
-1744 -1932 0
-1741 -1989 0
-1742 -1990 0
-1991 -1743 0
-1992 -1744 0
-1845 -1745 0
-1746 -1846 0
-1847 -1747 0
-1848 -1748 0
-1745 -1925 0
-1746 -1926 0
-1747 -1927 0
-1748 -1928 0
-1993 -1745 0
-1994 -1746 0
-1747 -1995 0
-1996 -1748 0
-1749 -1841 0
-1750 -1842 0
-1751 -1843 0
-1752 -1844 0
-1749 -1937 0
-1750 -1938 0
-1751 -1939 0
-1752 -1940 0
-1997 -1749 0
-1750 -1998 0
-1751 -1999 0
-2000 -1752 0
-1853 -1753 0
-1754 -1854 0
-1755 -1855 0
-1756 -1856 0
-1753 -1933 0
-1754 -1934 0
-1755 -1935 0
-1936 -1756 0
-2002 -1754 0
-2003 -1755 0
-1756 -2004 0
-1757 -1849 0
-1758 -1850 0
-1759 -1851 0
-1760 -1852 0
-1758 -1946 0
-1759 -1947 0
-1760 -1948 0
-2005 -1757 0
-2006 -1758 0
-1759 -2007 0
-2008 -1760 0
-1761 -1861 0
-1762 -1862 0
-1863 -1763 0
-1941 -1761 0
-1762 -1942 0
-1763 -1943 0
-1764 -1944 0
-2009 -1761 0
-2010 -1762 0
-2011 -1763 0
-2012 -1764 0
-1765 -1857 0
-1766 -1858 0
-1767 -1859 0
-1768 -1860 0
-1765 -1953 0
-1766 -1954 0
-1767 -1955 0
-1768 -1956 0
-1766 -2014 0
-2015 -1767 0
-1768 -2016 0
-1769 -1869 0
-1770 -1870 0
-1771 -1871 0
-1772 -1872 0
-1769 -1949 0
-1770 -1950 0
-1771 -1951 0
-1772 -1952 0
-1769 -2017 0
-2018 -1770 0
-1771 -2019 0
-1772 -2020 0
-1773 -1865 0
-1774 -1866 0
-1867 -1775 0
-1776 -1868 0
-1773 -1961 0
-1774 -1962 0
-1775 -1963 0
-1776 -1964 0
-1774 -2022 0
-2023 -1775 0
-1776 -2024 0
-1877 -1777 0
-1778 -1878 0
-1779 -1879 0
-1780 -1880 0
-1777 -1957 0
-1778 -1958 0
-1779 -1959 0
-1960 -1780 0
-1778 -2026 0
-2027 -1779 0
-1780 -2028 0
-1781 -1873 0
-1782 -1874 0
-1783 -1875 0
-1876 -1784 0
-1781 -1969 0
-1782 -1970 0
-1783 -1971 0
-1784 -1972 0
-1781 -2029 0
-2030 -1782 0
-2031 -1783 0
-2032 -1784 0
-1785 -1837 0
-1786 -1838 0
-1787 -1839 0
-1788 -1840 0
-1785 -1965 0
-1786 -1966 0
-1967 -1787 0
-1788 -1968 0
-2033 -1785 0
-2034 -1786 0
-2035 -1787 0
-1788 -2036 0
-1833 -1789 0
-1834 -1790 0
-1791 -1835 0
-1836 -1792 0
-1789 -1901 0
-1902 -1790 0
-1791 -1903 0
-1904 -1792 0
-1789 -1905 0
-1790 -1906 0
-1791 -1907 0
-1908 -1792 0
-1789 -1973 0
-1974 -1790 0
-1791 -1975 0
-1976 -1792 0
-1989 -1789 0
-1990 -1790 0
-1791 -1991 0
-1992 -1792 0
-1993 -1789 0
-1994 -1790 0
-1791 -1995 0
-1996 -1792 0
-1813 -1793 0
-1814 -1794 0
-1795 -1815 0
-1816 -1796 0
-1793 -1905 0
-1906 -1794 0
-1795 -1907 0
-1908 -1796 0
-1909 -1793 0
-1910 -1794 0
-1911 -1795 0
-1912 -1796 0
-1997 -1793 0
-1998 -1794 0
-1999 -1795 0
-2000 -1796 0
-2001 -1793 0
-2002 -1794 0
-2003 -1795 0
-2004 -1796 0
-1817 -1797 0
-1818 -1798 0
-1819 -1799 0
-1800 -1820 0
-1909 -1797 0
-1798 -1910 0
-1911 -1799 0
-1912 -1800 0
-1797 -1913 0
-1914 -1798 0
-1915 -1799 0
-1800 -1916 0
-1977 -1797 0
-1978 -1798 0
-1979 -1799 0
-1980 -1800 0
-2005 -1797 0
-2006 -1798 0
-2007 -1799 0
-2008 -1800 0
-2009 -1797 0
-2010 -1798 0
-2011 -1799 0
-2012 -1800 0
-1825 -1801 0
-1826 -1802 0
-1827 -1803 0
-1828 -1804 0
-1801 -1913 0
-1914 -1802 0
-1915 -1803 0
-1804 -1916 0
-1801 -1917 0
-1918 -1802 0
-1919 -1803 0
-1920 -1804 0
-1981 -1801 0
-1982 -1802 0
-1983 -1803 0
-1984 -1804 0
-1801 -2013 0
-2014 -1802 0
-2015 -1803 0
-2016 -1804 0
-2017 -1801 0
-2018 -1802 0
-2019 -1803 0
-1804 -2020 0
-1805 -1821 0
-1806 -1822 0
-1823 -1807 0
-1824 -1808 0
-1805 -1917 0
-1918 -1806 0
-1919 -1807 0
-1920 -1808 0
-1805 -1921 0
-1806 -1922 0
-1923 -1807 0
-1924 -1808 0
-2021 -1805 0
-2022 -1806 0
-2023 -1807 0
-2024 -1808 0
-1805 -2025 0
-1806 -2026 0
-2027 -1807 0
-2028 -1808 0
-1829 -1809 0
-1830 -1810 0
-1831 -1811 0
-1832 -1812 0
-1809 -1901 0
-1902 -1810 0
-1811 -1903 0
-1904 -1812 0
-1921 -1809 0
-1810 -1922 0
-1923 -1811 0
-1812 -1924 0
-1985 -1809 0
-1986 -1810 0
-1987 -1811 0
-1988 -1812 0
-1809 -2029 0
-2030 -1810 0
-2031 -1811 0
-2032 -1812 0
-2033 -1809 0
-2034 -1810 0
-1811 -2035 0
-1812 -2036 0
-1813 -1837 0
-1814 -1838 0
-1839 -1815 0
-1816 -1840 0
-1813 -1993 0
-1994 -1814 0
-1995 -1815 0
-1996 -1816 0
-1817 -1845 0
-1818 -1846 0
-1819 -1847 0
-1848 -1820 0
-1817 -1977 0
-1978 -1818 0
-1979 -1819 0
-1980 -1820 0
-1817 -2001 0
-2002 -1818 0
-2003 -1819 0
-2004 -1820 0
-1821 -1861 0
-1822 -1862 0
-1863 -1823 0
-1864 -1824 0
-2017 -1821 0
-2018 -1822 0
-2019 -1823 0
-1824 -2020 0
-1825 -1873 0
-1874 -1826 0
-1827 -1875 0
-1876 -1828 0
-1825 -1981 0
-1982 -1826 0
-1983 -1827 0
-1984 -1828 0
-1825 -2021 0
-2022 -1826 0
-2023 -1827 0
-2024 -1828 0
-1829 -1869 0
-1830 -1870 0
-1871 -1831 0
-1872 -1832 0
-1985 -1829 0
-1986 -1830 0
-1987 -1831 0
-1988 -1832 0
-1829 -2025 0
-1830 -2026 0
-2027 -1831 0
-2028 -1832 0
-1833 -1877 0
-1834 -1878 0
-1879 -1835 0
-1880 -1836 0
-1833 -1973 0
-1974 -1834 0
-1835 -1975 0
-1976 -1836 0
-1833 -2033 0
-2034 -1834 0
-1835 -2035 0
-2036 -1836 0
-1881 -1837 0
-1882 -1838 0
-1883 -1839 0
-1884 -1840 0
-1929 -1837 0
-1930 -1838 0
-1839 -1931 0
-1932 -1840 0
-1969 -1837 0
-1970 -1838 0
-1971 -1839 0
-1972 -1840 0
-1993 -1837 0
-1994 -1838 0
-1995 -1839 0
-1996 -1840 0
-1845 -1841 0
-1842 -1846 0
-1847 -1843 0
-1844 -1848 0
-1841 -1925 0
-1926 -1842 0
-1843 -1927 0
-1844 -1928 0
-1933 -1841 0
-1842 -1934 0
-1935 -1843 0
-1936 -1844 0
-1841 -1989 0
-1990 -1842 0
-1991 -1843 0
-1844 -1992 0
-1845 -1929 0
-1930 -1846 0
-1847 -1931 0
-1848 -1932 0
-1845 -1937 0
-1938 -1846 0
-1939 -1847 0
-1940 -1848 0
-2001 -1845 0
-2002 -1846 0
-2003 -1847 0
-2004 -1848 0
-1853 -1849 0
-1850 -1854 0
-1851 -1855 0
-1852 -1856 0
-1933 -1849 0
-1850 -1934 0
-1935 -1851 0
-1936 -1852 0
-1941 -1849 0
-1942 -1850 0
-1851 -1943 0
-1852 -1944 0
-1997 -1849 0
-1998 -1850 0
-1851 -1999 0
-2000 -1852 0
-1853 -1937 0
-1938 -1854 0
-1939 -1855 0
-1856 -1940 0
-1853 -1945 0
-1946 -1854 0
-1855 -1947 0
-1856 -1948 0
-2009 -1853 0
-2010 -1854 0
-2011 -1855 0
-2012 -1856 0
-1861 -1857 0
-1862 -1858 0
-1859 -1863 0
-1860 -1864 0
-1941 -1857 0
-1942 -1858 0
-1859 -1943 0
-1860 -1944 0
-1857 -1949 0
-1950 -1858 0
-1859 -1951 0
-1860 -1952 0
-2005 -1857 0
-2006 -1858 0
-2007 -1859 0
-2008 -1860 0
-1861 -1945 0
-1946 -1862 0
-1863 -1947 0
-1948 -1864 0
-1861 -1953 0
-1954 -1862 0
-1863 -1955 0
-1956 -1864 0
-2017 -1861 0
-2018 -1862 0
-2019 -1863 0
-1864 -2020 0
-1865 -1869 0
-1866 -1870 0
-1871 -1867 0
-1868 -1872 0
-1865 -1949 0
-1950 -1866 0
-1867 -1951 0
-1868 -1952 0
-1865 -1957 0
-1958 -1866 0
-1959 -1867 0
-1960 -1868 0
-2013 -1865 0
-2014 -1866 0
-2015 -1867 0
-2016 -1868 0
-1953 -1869 0
-1954 -1870 0
-1955 -1871 0
-1956 -1872 0
-1869 -1961 0
-1962 -1870 0
-1871 -1963 0
-1872 -1964 0
-1869 -2025 0
-1870 -2026 0
-2027 -1871 0
-2028 -1872 0
-1877 -1873 0
-1874 -1878 0
-1875 -1879 0
-1876 -1880 0
-1873 -1957 0
-1958 -1874 0
-1959 -1875 0
-1960 -1876 0
-1965 -1873 0
-1874 -1966 0
-1875 -1967 0
-1876 -1968 0
-2021 -1873 0
-2022 -1874 0
-2023 -1875 0
-2024 -1876 0
-1877 -1961 0
-1962 -1878 0
-1963 -1879 0
-1880 -1964 0
-1877 -1969 0
-1970 -1878 0
-1971 -1879 0
-1880 -1972 0
-2033 -1877 0
-2034 -1878 0
-2035 -1879 0
-1880 -2036 0
-1881 -1925 0
-1926 -1882 0
-1883 -1927 0
-1884 -1928 0
-1965 -1881 0
-1882 -1966 0
-1967 -1883 0
-1884 -1968 0
-2029 -1881 0
-2030 -1882 0
-2031 -1883 0
-2032 -1884 0
-1885 -1901 0
-1902 -1886 0
-1903 -1887 0
-1904 -1888 0
-1885 -1905 0
-1906 -1886 0
-1907 -1887 0
-1908 -1888 0
-1889 -1909 0
-1890 -1910 0
-1891 -1911 0
-1892 -1912 0
-1889 -1913 0
-1914 -1890 0
-1891 -1915 0
-1892 -1916 0
-1893 -1913 0
-1894 -1914 0
-1895 -1915 0
-1896 -1916 0
-1893 -1917 0
-1918 -1894 0
-1895 -1919 0
-1896 -1920 0
-1897 -1901 0
-1902 -1898 0
-1899 -1903 0
-1900 -1904 0
-1897 -1921 0
-1898 -1922 0
-1923 -1899 0
-1900 -1924 0
-1989 -1901 0
-1990 -1902 0
-1991 -1903 0
-1992 -1904 0
-2033 -1901 0
-2034 -1902 0
-1903 -2035 0
-1904 -2036 0
-1993 -1905 0
-1994 -1906 0
-1995 -1907 0
-1908 -1996 0
-1997 -1905 0
-1998 -1906 0
-1999 -1907 0
-2000 -1908 0
-2001 -1909 0
-2002 -1910 0
-2003 -1911 0
-2004 -1912 0
-2005 -1909 0
-2006 -1910 0
-2007 -1911 0
-2008 -1912 0
-2009 -1913 0
-2010 -1914 0
-2011 -1915 0
-2012 -1916 0
-2013 -1913 0
-2014 -1914 0
-2015 -1915 0
-2016 -1916 0
-2017 -1917 0
-2018 -1918 0
-2019 -1919 0
-1920 -2020 0
-2021 -1917 0
-2022 -1918 0
-2023 -1919 0
-1920 -2024 0
-1921 -2025 0
-1922 -2026 0
-2027 -1923 0
-2028 -1924 0
-2029 -1921 0
-2030 -1922 0
-1923 -2031 0
-2032 -1924 0
-1993 -1925 0
-1994 -1926 0
-1995 -1927 0
-1996 -1928 0
-1989 -1929 0
-1990 -1930 0
-1991 -1931 0
-1992 -1932 0
-2001 -1933 0
-2002 -1934 0
-1935 -2003 0
-2004 -1936 0
-1977 -1937 0
-1978 -1938 0
-1979 -1939 0
-1980 -1940 0
-1997 -1937 0
-1998 -1938 0
-1999 -1939 0
-2000 -1940 0
-2009 -1941 0
-2010 -1942 0
-2011 -1943 0
-2012 -1944 0
-2005 -1945 0
-2006 -1946 0
-2007 -1947 0
-2008 -1948 0
-2017 -1949 0
-2018 -1950 0
-2019 -1951 0
-1952 -2020 0
-2013 -1953 0
-2014 -1954 0
-2015 -1955 0
-2016 -1956 0
-1981 -1957 0
-1982 -1958 0
-1983 -1959 0
-1984 -1960 0
-1957 -2025 0
-1958 -2026 0
-2027 -1959 0
-1960 -2028 0
-1985 -1961 0
-1986 -1962 0
-1963 -1987 0
-1988 -1964 0
-2021 -1961 0
-2022 -1962 0
-2023 -1963 0
-2024 -1964 0
-2033 -1965 0
-2034 -1966 0
-1967 -2035 0
-2036 -1968 0
-1969 -1973 0
-1974 -1970 0
-1971 -1975 0
-1976 -1972 0
-2029 -1969 0
-2030 -1970 0
-2031 -1971 0
-2032 -1972 0
-1993 -1973 0
-1974 -1994 0
-1975 -1995 0
-1976 -1996 0
-2009 -1977 0
-2010 -1978 0
-2011 -1979 0
-2012 -1980 0
-1981 -2013 0
-1982 -2014 0
-2015 -1983 0
-2016 -1984 0
-1985 -2033 0
-1986 -2034 0
-1987 -2035 0
-1988 -2036 0
1 0
598 0
611 0
